POSCAR file written by OVITO Basic 3.10.6
1
14.6703188094 0.0 0.0
0.0 16.2818568552 0.0
0.0 0.0 18.8104791126
Fe B C N
54 216 270 0
Cartesian
3.5434029363 4.3200992715 3.1615052296
3.0322954004 1.105757976 4.94047102
0.0101142895 6.9677099374 7.2096584913
1.828411526 4.7667567314 1.8625271592
1.7257978433 3.7198243074 5.203237479
5.3750299266 1.6258107254 4.0635893398
4.7204305793 1.2874179861 0.3608917375
6.0733001141 3.6706328872 2.1926136466
3.3160986137 4.6603604164 6.574524268
5.9745705139 6.836799157 8.6158596641
4.8260911107 7.130907751 5.8803158173
4.3490630081 7.1915953085 2.7954214483
12.1417648854 3.9684256293 6.9491458546
14.1403158982 1.7528579358 2.6170394514
11.1241166144 6.4233314635 6.0562128161
13.5595719485 3.9288060389 4.8379178855
8.5814064337 4.9656206895 2.2227171415
14.4445585704 2.1635227737 6.5096150796
7.9875424386 5.1117710847 5.6542578173
10.5329545037 1.0476541916 2.7571855477
13.7319436831 6.3119906937 1.2715152643
10.734701887 0.5201466613 5.3863579651
5.1742483334 15.6322672687 3.027371094
5.5203476588 9.0527810293 7.8204591647
1.6405812962 14.887635447 0.8654618508
6.0581942608 8.9585999236 4.335897297
3.5926645395 10.6334463011 0.7174227348
0.6819513838 9.8797324962 1.9185557371
0.4051760654 9.2378105847 8.2846010516
12.0354268114 14.0832347226 1.5215178903
8.0494125472 9.4157554176 6.3788694437
11.2941328117 9.4506913355 3.605571848
9.6103510475 8.4818055683 1.2843750053
14.4430650712 11.7720625881 3.1648178379
11.6431570075 14.1467555283 6.2889935285
13.1717673913 14.8900008976 4.445163128
13.0803871908 9.1188017605 0.3642266163
9.2156757501 15.1851097229 5.1094432199
11.9203612401 10.0819828805 7.3869588798
2.0051994293 6.9987323612 18.597137426
4.7373664588 4.8020623091 10.7307830186
3.9773804393 1.2968198166 9.8706532218
4.2894198128 1.4873271662 14.0875697194
4.9298226534 7.1243505479 11.0739309259
1.9425119149 0.6463240585 18.0576361817
7.2093611199 6.5327850189 11.8063038832
9.7818945817 2.5268913077 10.0858128067
8.5879114977 4.0753539372 15.2350571247
8.5200539181 1.3404405113 12.1285392187
11.2835674753 8.0667209204 10.2670312688
12.4842561481 6.6256316224 17.5192638103
14.1794958197 8.3845968207 13.1852254238
14.6684368245 9.8218071055 16.8386058562
12.8310420023 8.2883674108 15.3263520692
5.824783515 3.9861183855 4.336170395
5.0267811881 5.0713211061 1.3305338548
6.2518730154 2.7993690218 0.1272073714
1.9185917482 6.3469729567 4.8510991394
0.9128020481 6.3774639806 2.9380379121
3.5540455942 5.7924017688 1.0567712953
3.6394812983 4.1204701127 0.9484195124
1.7235858126 5.8249602776 6.6979126202
6.9170712088 5.9128268614 2.6599349205
4.7864865958 4.957921811 8.6239318165
2.320631861 1.1493810378 8.3915661696
4.8401954113 5.4374162089 4.3493315
6.3336248952 1.7383907867 1.7504756022
2.7362040652 2.2216451494 1.5873407779
1.5631863968 3.8737476553 7.3421882176
6.6101746344 1.2294708131 5.7148112039
3.1046932865 1.2871517336 7.076655072
0.1754219951 3.3018860506 1.3482088228
4.3322601713 1.6388467318 2.1952391448
1.0852861077 1.4817659009 3.8217444191
1.0131203582 7.806572347 4.6169540831
6.8510430519 7.2620856337 5.6699299198
6.422766596 2.3978091879 7.3160762901
0.8883805896 0.9052554846 5.7589215348
3.5244891969 2.682936336 6.2653247076
2.3862058481 7.221565446 1.6549683665
0.6654061147 0.3230471006 0.7691310262
7.1627432082 1.8562395012 3.0639784215
1.8472375473 2.1406520173 6.7971363645
5.3851821373 5.3344006735 7.2048829634
2.8825441871 2.2606448902 3.2593949259
3.391856593 5.8864175064 4.945459861
6.8257740945 5.6073572362 1.0478786074
3.8999707094 7.5612676449 7.6549638264
3.9179935517 6.3478455601 8.8068393479
1.1287328058 5.03393349 3.8784809026
0.2196245192 4.9056416204 5.9583202718
1.2943756645 0.7035882693 2.4158734361
5.9060464047 5.3153015552 5.7991325998
6.1139254847 7.0173274688 3.7292849856
1.0938137138 1.9842429389 1.2371959283
4.3128828977 3.5437958751 8.9379997201
7.2296767252 0.0447244386 6.7951258417
7.47753356 3.64893634 4.0662963411
14.5081747116 4.892097357 2.7968774839
13.4621929731 3.4392474691 2.4305247968
8.0268317003 6.355259935 4.1024882513
8.3405298027 7.2738284118 6.7410802086
12.9887325554 0.5871921146 3.6413612848
7.7633464935 1.7269911294 4.5361495705
9.0181028605 4.0920063444 4.2962503582
14.0628100413 1.598444869 4.73195872
7.5263985649 3.9056809881 1.0649558185
13.414025008 5.6244043736 6.5373500341
11.1417272946 2.2607098482 4.228079394
11.8779241477 4.1592926355 1.5638941893
12.9240814936 7.3335532589 5.9628197504
11.7087760655 7.9378618588 7.0134615372
12.8349963106 5.0566049385 2.803251212
10.439086697 3.788054016 3.7167061817
11.129585546 7.0076124783 8.2854331202
9.3349365597 1.9447972269 6.7431177109
10.5636679524 4.903490152 0.6244298335
9.4547955582 5.6359194812 6.7111342334
9.7774590469 6.3050859903 1.4092868875
10.0305764589 5.2520518408 4.9202531547
13.1404430268 1.451933723 0.7152522808
12.4118311561 2.1674716741 5.8517134544
11.737917998 2.5459160704 8.9481153
10.9394545074 2.1670547228 7.0695597578
12.4014452616 0.9408185992 2.0979055778
8.1673973957 2.7931096685 7.5934042064
7.6236327652 0.2319350716 2.2775677267
9.7668359238 6.6782336512 9.3296519236
11.7799003709 6.2488478536 1.8286626147
8.3327445407 3.754301525 8.9855469631
4.6035585576 15.9887566582 5.152456943
3.7096059146 16.2225250916 6.5509852987
6.0683473538 8.3398019238 2.3617901462
6.4084700603 14.5875869785 4.6375765751
3.7302969446 8.8682768324 6.7192024018
2.7901450432 8.9416628224 2.216836465
0.4013838507 8.9872033647 0.0664318975
7.1869463363 8.6230462978 9.0080670127
0.3813370337 13.5364385401 1.8035995843
6.0868436936 15.1896238312 6.1429149408
7.1294059485 10.1364892926 8.1852923036
1.7726418196 8.7419445039 3.6158895073
2.0952553892 15.982482635 3.4779815358
3.5257294393 15.913835959 0.6690752856
2.6748030803 12.6915245752 1.1248390093
4.0705452264 14.3980963899 5.8845130037
3.7866476256 14.1006929795 1.9889291153
1.0302732422 15.5722132127 6.3569671822
0.5344510959 12.7074684226 6.4151363995
4.6837036252 12.0577046307 7.8962522223
5.3894317406 14.2338185964 7.7204253307
5.8484922409 11.0453100217 8.6081469697
2.6437653624 14.7777166292 6.6592584337
1.3506282846 13.9517741123 5.4958428513
5.2004772456 11.3078695836 1.8868628735
4.5611351427 9.3872276866 2.8160554666
0.4663782587 14.819822172 4.2810084942
7.0331417815 13.9227249623 8.6545238511
0.2061206227 10.770204114 6.6404149034
2.3168205905 10.0351646447 4.8381743183
1.916038002 9.2658527084 0.6389068359
1.608246756 11.1519840307 3.716697687
1.9707017384 11.691998038 2.1991249253
0.5456570712 11.9273232225 5.0976685395
6.0202098519 10.4204426304 6.1564714955
13.4611312827 8.8705547581 6.8238342633
11.8505235499 8.1934552198 1.9198338245
10.9225668743 14.8522874499 4.2698357895
10.3165279449 8.2489660655 5.4298388979
11.7986106747 15.7498291475 3.1264153116
12.5012677543 12.193138085 2.0664904956
10.709287489 11.2434543713 4.6294514347
11.8951306719 12.0628172914 5.6286130559
9.9553921703 13.2330082247 8.4416329814
8.6265865568 8.7735369856 8.1597171308
11.807036523 16.0951978852 6.901849043
13.2059349017 9.2330741475 3.7121705933
12.7590516454 10.7840979259 2.9230876491
7.501653208 11.6733350868 3.0493059734
7.714004434 8.6679954144 2.6043214056
7.8623003054 10.0338107274 3.949445319
7.5049114635 15.0781164743 3.4860122354
14.2831443853 13.7362431555 3.2440132593
13.0089108078 12.9798738328 4.4605369044
8.4979892441 12.8333921715 6.4028720944
7.3724260208 12.0626100532 8.9513010459
9.544226205 9.9829343495 4.9346251204
11.0064186048 9.5714878382 0.6039790291
13.8256111298 16.279301055 0.7369857596
9.6679838584 13.9149336175 3.4828905406
13.1773455625 11.2869924358 0.3794593328
8.5998379047 15.5529113807 6.9624212945
10.9312111967 11.5203817189 2.90679234
9.8065170659 10.8372469762 1.5566437565
9.5381930691 14.0808787187 6.8786565742
13.9302241359 10.8519402488 8.0644225001
11.4651105826 12.3247459903 7.3815835319
14.2249928786 14.071884411 6.1537927222
13.6744196209 9.8539003285 5.4950886536
10.2776964053 13.1755709278 5.0110100225
11.1344936045 8.6294443832 8.2840665935
6.7936572378 7.3952985781 10.3150506801
2.5318232489 2.7467632806 16.9114023281
2.3134894255 6.351492746 10.200404753
2.5713627746 5.2663988998 17.6349555855
5.2819221436 5.5606269877 18.4080644234
3.1210071262 3.6736185774 17.8893648289
3.9204514858 6.4533679921 18.0489172367
6.194945296 3.1306821298 10.0320354176
5.7075653115 0.2711679116 9.9102477526
0.0365051961 7.9213984567 14.9593441383
3.1908464218 7.736518865 12.3553773621
4.9943646363 0.5864437117 12.0603894975
6.5825401053 0.3588835237 11.6514147683
3.6403591105 1.5491755647 16.5184700813
5.2908088303 5.31131552 12.4364601247
2.7078200088 2.1511295613 11.3437216003
6.0725048544 1.7822165005 12.8244132629
0.8916413329 5.2439160967 13.5919702189
7.0989251229 2.7678419441 11.5358258049
14.5963525288 1.3987108047 18.5857473521
7.7560450204 5.2411411452 9.6568005678
14.4719990571 7.8561115701 9.8700151457
14.2287423581 3.0613622123 18.0418330688
9.142267687 2.5414828571 18.1551613361
10.8228396449 7.012497377 12.8184374319
12.4985858249 7.6525391722 12.4336601061
9.2363119864 6.7333774807 12.4134824305
11.6075946361 1.414069339 10.4046189463
7.3512680508 0.6320005204 9.6993964335
13.107256004 6.8875308885 9.7909331067
14.2749641319 7.6632523436 18.2332753994
14.6316722029 7.3947781711 16.701249387
13.8793946881 5.0205028153 16.1966934102
11.552345324 0.5713476401 17.8157857569
7.4785786465 6.2778161149 18.2139458746
8.6983733501 3.3236860034 12.096428154
11.2941171265 3.0944681058 17.1163729911
10.744706222 0.0314526068 9.7914994598
12.9835631392 6.0897206752 15.1823361582
8.3811367352 5.1585003299 12.7837045919
8.1697785893 4.2794202155 11.0290310358
2.8129246342 15.2190821018 17.9468547715
2.2748924027 16.204453112 16.4383097688
1.5437386285 10.7391355039 9.7010791085
1.2985633067 8.2340036378 12.6797783255
0.7529518172 13.368956678 18.6362757667
2.3991558668 13.7280471529 18.3579022474
0.1506347455 13.2145311636 16.9599505598
3.7966762329 9.5592143719 12.0913586093
1.1093481292 11.2890774427 11.3823404595
0.9869968822 12.8170530949 15.3254526365
2.3428507251 13.4656086877 14.4580547073
0.0360043259 11.6952410686 15.8649549701
2.4623491786 9.36395152 9.7667065574
1.0615947089 10.8871774141 14.9949630567
0.5235282176 13.8571496551 13.6311588706
7.099233601 9.0377040034 11.0632350377
9.4681031972 15.0323882444 11.2680155285
13.2474480014 10.3211770111 13.4882107776
11.8630309518 10.4048113777 16.544278903
11.4885896499 9.8966466698 9.5786115259
14.4670631883 10.5538799118 18.7446427242
13.5178812006 15.9371541912 16.7920285366
11.6182062662 8.8825367525 13.4380612979
11.0633174 9.316714596 15.5575295406
11.7693599973 10.677058757 18.3587074917
10.4913077848 12.4629579083 10.1476076196
14.5981360089 11.8673481461 17.94575997
14.6450107742 8.5427873497 11.4299325706
4.7116268899 2.2534498002 7.8446581535
4.9525840262 3.867233141 0.0432537431
5.346347488 2.4573426783 6.0359467528
5.8651114752 1.7123301025 9.0084897768
2.4092131056 6.7141440663 8.4311785551
6.8093174007 3.7332007703 6.343474777
0.649413344 7.547666929 1.4274466983
1.5394705088 7.8318857845 9.2413767691
1.1989396247 3.8269819504 9.0075965828
7.3909106976 2.2605021177 8.9523131677
10.6320088128 7.0940463147 2.8960432802
8.5897949434 0.832169852 5.6442022307
8.8028268199 7.2521097347 2.9612794779
9.1835543408 3.7804072937 0.6718081687
9.0320442804 0.2596780431 1.7099514305
9.7476527259 1.8925467026 0.6612775366
11.7239165716 5.2946545993 3.8831754259
10.3960064633 3.271453753 1.9163589264
8.4094935857 0.4393844153 3.7164523793
8.2566182182 7.2535658903 8.6841070145
12.3970536667 5.9197287111 8.1684134021
13.6610330448 4.0995475844 0.4005589443
10.0920118401 6.9636956061 4.2890102306
11.5081941789 1.9853814063 1.4050604925
12.7317040912 1.6296038807 7.4191547199
10.6010596776 5.3686153957 7.9270952093
13.0634765174 1.5490296011 9.1790651069
11.6809379068 4.3532163569 9.273694586
13.9538276611 8.1240769392 5.0855632761
14.4899446254 8.0408523918 3.1913895609
1.9350794119 10.0087384379 7.0101454483
2.697711297 8.6347904471 8.0361648109
6.9604575218 11.9612166457 5.8966369346
3.6825729229 10.1751818873 5.6027450572
1.2348625087 11.197153492 7.9356020996
3.3924751294 11.8462287241 6.661461385
4.3521744422 14.1337460346 3.7683726885
1.4053947007 12.8541797913 8.3432742739
1.1071112106 14.4587589059 9.1725314999
5.5427713662 9.7732528316 1.1049777855
4.1096673517 13.5406738335 9.1645557799
1.7333551906 15.7620097616 8.1141508188
2.5486646369 14.0008005031 8.2426628641
2.3798299634 13.0719384794 6.9326172811
4.5114330229 10.3462700983 6.9171691577
5.239398752 14.6386356151 0.9040827416
4.6092221675 12.6882860632 1.2572263236
4.7032004227 11.1095086102 3.4703813111
3.2596765743 11.3696645858 4.4553789224
6.2035535471 12.5539855722 7.6778745874
6.8738064439 14.974138118 1.685987579
6.9100644766 10.970303058 1.4414755966
4.2180436026 12.8078753076 4.7250121163
7.2344774806 8.9750870013 1.1348141754
6.4872516228 11.0191738333 4.4849398613
5.8440002375 12.7380874167 4.6035221989
8.0234604775 15.8458572972 8.6057838202
13.2477474667 12.5423088431 8.8602105969
11.6572680416 13.4065921126 8.7096093201
10.3471437657 15.1499501314 2.2373773697
13.0631183297 16.269772587 8.0635118236
8.6086600489 14.2219945577 8.5394699258
9.576376324 13.7787231773 1.7962356961
8.2466002536 10.2883623453 2.1899710446
8.1199466489 13.4950633259 2.7273164808
10.5207782901 11.6071652277 0.1277026502
9.6858428535 10.0382379122 8.2464420775
9.0568138337 11.374919415 5.8790915576
14.5221886183 15.1163961622 7.6761016968
11.9816937644 12.2515870621 0.2320083895
9.9737498609 11.3398303126 7.3541810571
10.6743783683 12.3272012638 1.5036928629
9.5305359544 15.0590463311 0.8388171962
8.1317095195 14.0383352585 0.9317458731
9.027430555 11.7576791751 9.1064904085
9.5461519849 15.3418291036 9.3507830969
11.4204350867 15.2721217008 8.5234579296
14.4578438124 13.5174095409 8.1320627248
13.3010511382 11.2825624922 5.0521869932
7.9286848874 15.8685934504 0.6236274348
6.1663000039 4.0360233839 14.8622144423
4.4920824905 4.7927101461 17.1535118342
6.5237485563 1.6520772345 17.680300353
5.0067598495 4.8689026544 15.7034718567
4.3161423797 3.7206026482 14.465362987
2.1019176956 7.7729735039 11.0986429486
1.6853356364 1.8308376382 14.3382963147
5.7442895744 3.6572452669 13.3263702453
2.8282402629 0.5270854796 14.8065371083
1.0628781485 7.0437430483 13.8850626529
1.3924590579 7.2581794271 15.6215292569
6.414452012 8.0417272375 13.0264230877
7.0766529225 7.7965365694 16.9992268373
3.6837118457 8.001275079 17.4692927073
1.8380570575 2.0864402713 9.6538318943
4.2478019696 7.7862831924 15.8750466031
5.3467170146 1.3495224044 16.2784416208
3.799220898 4.3136611134 12.9179590609
1.5832697466 3.1333982737 15.4778952765
1.2598029814 0.2840728444 14.8928199458
2.7329414982 3.6923208973 12.0433725512
2.9631620978 2.2831984664 15.2280024148
4.7086703566 6.4449834371 15.0697032592
5.7924354481 6.5278590959 13.5038891676
4.1107378445 6.2535959308 13.1539989138
1.5526229991 4.9281712965 10.4939038174
3.5230592787 5.2864898178 14.4580722304
3.2235296394 3.4198741864 10.0736336317
1.0602027306 1.450512497 11.2484637675
1.0358469708 4.2849697558 12.0165133825
6.2832895221 5.7976200961 15.0420802286
1.4145059331 2.6020218669 12.6033410552
6.902570027 2.4310126947 16.0347164262
1.9067818643 5.7897472127 14.9937663743
1.1113118525 5.7979921565 16.572969253
0.776466539 4.5492339066 15.1356874779
6.8380737211 4.9155293708 13.5543402763
6.5657934662 1.2240733969 14.4839520613
0.4359686425 0.3922221725 16.5907299194
0.1044038821 2.2762103523 9.7898806509
0.6094370304 2.2231666036 16.9270779621
7.9126464177 0.1194682435 15.1020387866
12.2078927987 4.9690031281 18.782143236
9.5088703541 4.2505338406 17.7821509983
11.5277814497 2.8214495257 15.456790022
9.2783122873 6.5646500889 15.366662557
7.8604170663 7.9571783698 18.5524698052
11.163661713 4.8668973532 17.4704492426
7.6428790368 6.2934406218 16.0779901756
8.2265297 1.6620523936 16.9931307727
10.9315368117 3.9668638691 14.1998473919
8.348744889 1.8276267542 15.2275493804
14.6699425265 4.0585825079 10.3668466532
9.0927173872 6.8630012297 18.746593622
8.6394738948 5.4802075787 17.1738337783
13.4518871604 6.5776839744 13.7875735651
10.1926830376 6.4887407813 17.1292928252
13.192691038 5.0912640531 9.901704135
11.7668695877 4.8353687449 11.3462870015
13.300136929 2.1674358945 14.6805931
13.7808000215 4.7453961902 14.381105453
14.6506927611 1.4659609148 15.3262671598
12.6602277978 0.134799458 9.8032228584
10.2840376643 6.3131909762 11.0889011268
11.9444476838 0.168522367 16.1213566028
11.8253412061 6.84285581 14.198717305
10.2038686467 4.9222707248 9.8246905154
12.4114616743 1.0632108693 13.2366406965
10.1102143003 5.6000145123 14.1292602886
11.3993087616 2.0470620183 18.3804355702
8.4362146761 7.9537612285 15.5272452141
14.5959207419 2.7982306714 11.7345862011
10.1118247089 2.8304469978 12.8685024675
13.064333603 2.4696599904 12.8080158004
12.9963925679 4.1626526538 17.4136617837
10.5626032498 1.2553332575 13.3015108497
9.953952905 2.3170111541 14.5810325645
7.4227310718 0.0957735266 17.8612881658
12.0102201484 6.4918111886 11.2932462154
11.3131138617 1.0967409493 14.7690658743
11.5221128435 3.7034737443 12.5650544097
11.5290181723 1.9049989543 12.0953921877
12.5363824991 3.6069415267 14.1587657529
4.5075464747 11.676263705 9.8419228318
5.8545403377 16.2415045407 17.2413313185
3.0638767485 10.7305743028 10.564492776
4.6621991831 15.3438376816 18.0318577547
5.9164131383 16.212459533 15.490352475
5.4628808938 14.769246485 9.4268070834
5.2946940547 13.5059325098 18.4849299848
2.520522701 8.4467389435 16.3388785341
2.7176450167 9.2087737455 18.0904121501
3.5295205501 12.4081770784 18.3608549003
4.4153003165 9.3964992624 18.2736733719
3.8275543473 13.8756860524 17.27410557
4.6685554455 15.0976570924 12.8127773082
2.8194334327 9.1932239377 13.44185142
6.5378200554 12.7447016739 17.8055803523
0.6381927653 16.1516314256 11.6609911026
5.227193458 13.1299075742 10.6431303281
0.6140935127 15.5346950138 13.4263185649
3.2022478647 15.2967727028 14.253331893
0.3315029711 14.5574775421 10.820021202
2.7099599896 11.1389561994 12.4106797469
5.421978713 8.5537033319 17.1466884502
6.2603684155 11.6088038623 10.2357679819
2.3420681125 10.0963693265 16.2969167801
5.025013492 9.2841510115 15.2751188053
6.1846961637 11.0491849374 13.0828613461
3.6461993069 10.960704556 17.3859779682
5.4347160051 9.3850831091 12.2880067567
4.9242369408 15.3636160414 14.5011330962
3.8302182501 10.803196941 15.6731106867
5.2193411472 12.3654803113 13.4944071359
3.3617602689 9.2922774667 15.256691341
3.3333667138 12.5297101217 12.9668504705
4.6137259348 13.3847541415 12.1277038128
5.8130144461 13.8563664878 13.2696536357
3.5870594318 14.0441916988 15.590451511
3.7659978344 12.5272598421 14.8329995038
2.9618212954 14.2617572365 12.6718572526
5.3806706305 13.3497376172 15.0692250205
5.1685873706 10.1048336492 16.8987591018
1.5478858778 14.6051640974 11.9572883147
1.1765724938 10.2608366463 13.4029531151
6.0524462318 9.3498774524 14.0383984665
0.4709744787 12.9961323557 11.5586212026
6.3540583701 11.2828226996 16.973622092
6.7624520778 10.6250291309 11.4905453562
6.5356369254 12.6091302529 15.9997093777
6.8925941481 13.2761288572 10.2284106402
7.2491586326 15.3782917141 16.6411045267
0.0775808479 9.9985932745 12.2258148706
7.9626997139 11.1150427846 12.6724861368
7.9287664837 10.4951455915 17.1304900927
12.5709910779 14.6815564064 12.3421829214
8.6843468016 13.4023217146 14.270506674
10.9493069038 14.8567973706 15.5399756537
10.3706621695 15.790944455 16.9490757806
9.0424053681 11.7000062061 18.1606399178
12.8176937235 11.7717123134 13.582360231
7.4596177662 14.3098985042 13.1039162838
13.562859377 13.6303780303 11.1665529574
11.877387452 12.0194583673 15.5549304232
9.9062927437 13.2492898272 11.5480914896
10.8206979231 15.2385329764 18.3690600424
13.7121311027 13.2219354704 13.2853173719
7.4913726181 11.42784494 18.6823597445
8.5386160344 15.308212175 13.8853738049
8.102435838 15.5173850391 12.016673456
8.878199482 13.0570874704 17.0767095736
10.4945746649 11.0150230309 15.7155719419
13.6326167125 15.5787182645 11.0356055108
13.490018678 14.3384472809 16.9793214178
10.6238728901 10.0521696223 14.0049182671
8.1910938685 13.7549610719 11.2788098243
8.2314364728 8.2914489491 12.5102906461
8.6504566127 16.2641789311 16.5128134263
9.6904854519 8.2735274798 18.0335056529
7.6090477206 10.3766475304 14.157462196
9.931249639 8.2540171827 16.4458318393
13.4273928868 10.7913225758 15.2477380033
8.5889964813 12.6747951056 12.6276893736
8.1828578118 12.8353521999 15.6314729651
8.0266528664 13.136883942 18.4530940684
10.3768719439 14.0762828071 17.0578615892
9.9254053812 10.4095742075 10.1142780271
7.6048422112 13.9272502212 16.8312406412
8.4461693622 8.9538606165 17.047169521
13.6782252902 16.0422703931 12.8574749212
10.2021912674 13.3231919514 13.2495898884
10.0848423967 14.8441656465 13.9391029389
13.0486632317 10.9944610874 9.7552967263
9.0733517016 11.474541574 16.3815163119
11.9540446763 13.6585971846 16.0121472383
12.5023254778 12.7128257891 10.1996085824
12.8203755035 14.9308913162 15.5461646421
11.6256312717 11.1993930605 10.9229177927
14.2988636482 9.968770299 10.3082985553
13.2651459815 14.7831124719 13.8237117015
12.7435432913 15.3835777004 18.3247905946
9.7969309664 15.9867865766 12.7370762248
11.6946350076 10.7023978308 12.6451362556
8.6929364951 9.7618075634 11.407911733
10.9011787003 11.8081661123 14.006531832
8.9796738388 9.918007914 13.503150323
10.8714578366 14.6721472657 12.2757608278
7.7624702082 8.7525440276 14.072329769
12.0876534586 13.8161789719 18.0049326315
7.3900408833 11.1120434549 15.5971419395
