POSCAR file written by OVITO Basic 3.10.6
1
14.6703188094 0.0 0.0
0.0 16.2818568552 0.0
0.0 0.0 18.8104791126
Fe B 
54 486 
Cartesian
3.5434029363 4.3200992715 3.1615052296
3.0322954004 1.105757976 4.94047102
0.0101142895 6.9677099374 7.2096584913
1.828411526 4.7667567314 1.8625271592
1.7257978433 3.7198243074 5.203237479
5.3750299266 1.6258107254 4.0635893398
4.7204305793 1.2874179861 0.3608917375
6.0733001141 3.6706328872 2.1926136466
3.3160986137 4.6603604164 6.574524268
5.9745705139 6.836799157 8.6158596641
4.8260911107 7.130907751 5.8803158173
4.3490630081 7.1915953085 2.7954214483
12.1417648854 3.9684256293 6.9491458546
14.1403158982 1.7528579358 2.6170394514
11.1241166144 6.4233314635 6.0562128161
13.5595719485 3.9288060389 4.8379178855
8.5814064337 4.9656206895 2.2227171415
14.4445585704 2.1635227737 6.5096150796
7.9875424386 5.1117710847 5.6542578173
10.5329545037 1.0476541916 2.7571855477
13.7319436831 6.3119906937 1.2715152643
10.734701887 0.5201466613 5.3863579651
5.1742483334 15.6322672687 3.027371094
5.5203476588 9.0527810293 7.8204591647
1.6405812962 14.887635447 0.8654618508
6.0581942608 8.9585999236 4.335897297
3.5926645395 10.6334463011 0.7174227348
0.6819513838 9.8797324962 1.9185557371
0.4051760654 9.2378105847 8.2846010516
12.0354268114 14.0832347226 1.5215178903
8.0494125472 9.4157554176 6.3788694437
11.2941328117 9.4506913355 3.605571848
9.6103510475 8.4818055683 1.2843750053
14.4430650712 11.7720625881 3.1648178379
11.6431570075 14.1467555283 6.2889935285
13.1717673913 14.8900008976 4.445163128
13.0803871908 9.1188017605 0.3642266163
9.2156757501 15.1851097229 5.1094432199
11.9203612401 10.0819828805 7.3869588798
2.0051994293 6.9987323612 18.597137426
4.7373664588 4.8020623091 10.7307830186
3.9773804393 1.2968198166 9.8706532218
4.2894198128 1.4873271662 14.0875697194
4.9298226534 7.1243505479 11.0739309259
1.9425119149 0.6463240585 18.0576361817
7.2093611199 6.5327850189 11.8063038832
9.7818945817 2.5268913077 10.0858128067
8.5879114977 4.0753539372 15.2350571247
8.5200539181 1.3404405113 12.1285392187
11.2835674753 8.0667209204 10.2670312688
12.4842561481 6.6256316224 17.5192638103
14.1794958197 8.3845968207 13.1852254238
14.6684368245 9.8218071055 16.8386058562
12.8310420023 8.2883674108 15.3263520692
5.824783515 3.9861183855 4.336170395
5.0267811881 5.0713211061 1.3305338548
6.2518730154 2.7993690218 0.1272073714
4.7116268899 2.2534498002 7.8446581535
1.9185917482 6.3469729567 4.8510991394
0.9128020481 6.3774639806 2.9380379121
4.9525840262 3.867233141 0.0432537431
3.5540455942 5.7924017688 1.0567712953
3.6394812983 4.1204701127 0.9484195124
1.7235858126 5.8249602776 6.6979126202
6.9170712088 5.9128268614 2.6599349205
4.7864865958 4.957921811 8.6239318165
2.320631861 1.1493810378 8.3915661696
5.346347488 2.4573426783 6.0359467528
4.8401954113 5.4374162089 4.3493315
6.3336248952 1.7383907867 1.7504756022
2.7362040652 2.2216451494 1.5873407779
1.5631863968 3.8737476553 7.3421882176
6.6101746344 1.2294708131 5.7148112039
3.1046932865 1.2871517336 7.076655072
0.1754219951 3.3018860506 1.3482088228
4.3322601713 1.6388467318 2.1952391448
1.0852861077 1.4817659009 3.8217444191
5.8651114752 1.7123301025 9.0084897768
1.0131203582 7.806572347 4.6169540831
6.8510430519 7.2620856337 5.6699299198
6.422766596 2.3978091879 7.3160762901
0.8883805896 0.9052554846 5.7589215348
2.4092131056 6.7141440663 8.4311785551
3.5244891969 2.682936336 6.2653247076
2.3862058481 7.221565446 1.6549683665
0.6654061147 0.3230471006 0.7691310262
6.8093174007 3.7332007703 6.343474777
7.1627432082 1.8562395012 3.0639784215
1.8472375473 2.1406520173 6.7971363645
5.3851821373 5.3344006735 7.2048829634
2.8825441871 2.2606448902 3.2593949259
3.391856593 5.8864175064 4.945459861
6.8257740945 5.6073572362 1.0478786074
3.8999707094 7.5612676449 7.6549638264
3.9179935517 6.3478455601 8.8068393479
1.1287328058 5.03393349 3.8784809026
0.2196245192 4.9056416204 5.9583202718
0.649413344 7.547666929 1.4274466983
1.2943756645 0.7035882693 2.4158734361
5.9060464047 5.3153015552 5.7991325998
6.1139254847 7.0173274688 3.7292849856
1.0938137138 1.9842429389 1.2371959283
4.3128828977 3.5437958751 8.9379997201
1.5394705088 7.8318857845 9.2413767691
1.1989396247 3.8269819504 9.0075965828
7.2296767252 0.0447244386 6.7951258417
7.47753356 3.64893634 4.0662963411
14.5081747116 4.892097357 2.7968774839
13.4621929731 3.4392474691 2.4305247968
8.0268317003 6.355259935 4.1024882513
8.3405298027 7.2738284118 6.7410802086
12.9887325554 0.5871921146 3.6413612848
7.7633464935 1.7269911294 4.5361495705
9.0181028605 4.0920063444 4.2962503582
7.3909106976 2.2605021177 8.9523131677
14.0628100413 1.598444869 4.73195872
10.6320088128 7.0940463147 2.8960432802
7.5263985649 3.9056809881 1.0649558185
13.414025008 5.6244043736 6.5373500341
11.1417272946 2.2607098482 4.228079394
8.5897949434 0.832169852 5.6442022307
8.8028268199 7.2521097347 2.9612794779
9.1835543408 3.7804072937 0.6718081687
11.8779241477 4.1592926355 1.5638941893
12.9240814936 7.3335532589 5.9628197504
11.7087760655 7.9378618588 7.0134615372
9.0320442804 0.2596780431 1.7099514305
12.8349963106 5.0566049385 2.803251212
10.439086697 3.788054016 3.7167061817
11.129585546 7.0076124783 8.2854331202
9.7476527259 1.8925467026 0.6612775366
9.3349365597 1.9447972269 6.7431177109
11.7239165716 5.2946545993 3.8831754259
10.5636679524 4.903490152 0.6244298335
10.3960064633 3.271453753 1.9163589264
9.4547955582 5.6359194812 6.7111342334
8.4094935857 0.4393844153 3.7164523793
8.2566182182 7.2535658903 8.6841070145
9.7774590469 6.3050859903 1.4092868875
10.0305764589 5.2520518408 4.9202531547
12.3970536667 5.9197287111 8.1684134021
13.1404430268 1.451933723 0.7152522808
13.6610330448 4.0995475844 0.4005589443
12.4118311561 2.1674716741 5.8517134544
11.737917998 2.5459160704 8.9481153
10.9394545074 2.1670547228 7.0695597578
10.0920118401 6.9636956061 4.2890102306
12.4014452616 0.9408185992 2.0979055778
11.5081941789 1.9853814063 1.4050604925
12.7317040912 1.6296038807 7.4191547199
8.1673973957 2.7931096685 7.5934042064
10.6010596776 5.3686153957 7.9270952093
13.0634765174 1.5490296011 9.1790651069
7.6236327652 0.2319350716 2.2775677267
11.6809379068 4.3532163569 9.273694586
9.7668359238 6.6782336512 9.3296519236
11.7799003709 6.2488478536 1.8286626147
13.9538276611 8.1240769392 5.0855632761
8.3327445407 3.754301525 8.9855469631
14.4899446254 8.0408523918 3.1913895609
4.6035585576 15.9887566582 5.152456943
3.7096059146 16.2225250916 6.5509852987
6.0683473538 8.3398019238 2.3617901462
6.4084700603 14.5875869785 4.6375765751
3.7302969446 8.8682768324 6.7192024018
2.7901450432 8.9416628224 2.216836465
0.4013838507 8.9872033647 0.0664318975
7.1869463363 8.6230462978 9.0080670127
0.3813370337 13.5364385401 1.8035995843
1.9350794119 10.0087384379 7.0101454483
6.0868436936 15.1896238312 6.1429149408
7.1294059485 10.1364892926 8.1852923036
1.7726418196 8.7419445039 3.6158895073
2.697711297 8.6347904471 8.0361648109
6.9604575218 11.9612166457 5.8966369346
3.6825729229 10.1751818873 5.6027450572
2.0952553892 15.982482635 3.4779815358
3.5257294393 15.913835959 0.6690752856
1.2348625087 11.197153492 7.9356020996
3.3924751294 11.8462287241 6.661461385
2.6748030803 12.6915245752 1.1248390093
4.0705452264 14.3980963899 5.8845130037
3.7866476256 14.1006929795 1.9889291153
4.3521744422 14.1337460346 3.7683726885
1.0302732422 15.5722132127 6.3569671822
0.5344510959 12.7074684226 6.4151363995
1.4053947007 12.8541797913 8.3432742739
1.1071112106 14.4587589059 9.1725314999
5.5427713662 9.7732528316 1.1049777855
4.6837036252 12.0577046307 7.8962522223
4.1096673517 13.5406738335 9.1645557799
1.7333551906 15.7620097616 8.1141508188
2.5486646369 14.0008005031 8.2426628641
5.3894317406 14.2338185964 7.7204253307
5.8484922409 11.0453100217 8.6081469697
2.6437653624 14.7777166292 6.6592584337
1.3506282846 13.9517741123 5.4958428513
5.2004772456 11.3078695836 1.8868628735
4.5611351427 9.3872276866 2.8160554666
2.3798299634 13.0719384794 6.9326172811
4.5114330229 10.3462700983 6.9171691577
5.239398752 14.6386356151 0.9040827416
0.4663782587 14.819822172 4.2810084942
4.6092221675 12.6882860632 1.2572263236
4.7032004227 11.1095086102 3.4703813111
3.2596765743 11.3696645858 4.4553789224
6.2035535471 12.5539855722 7.6778745874
7.0331417815 13.9227249623 8.6545238511
6.8738064439 14.974138118 1.685987579
6.9100644766 10.970303058 1.4414755966
4.2180436026 12.8078753076 4.7250121163
0.2061206227 10.770204114 6.6404149034
7.2344774806 8.9750870013 1.1348141754
2.3168205905 10.0351646447 4.8381743183
1.916038002 9.2658527084 0.6389068359
1.608246756 11.1519840307 3.716697687
6.4872516228 11.0191738333 4.4849398613
1.9707017384 11.691998038 2.1991249253
5.8440002375 12.7380874167 4.6035221989
0.5456570712 11.9273232225 5.0976685395
6.0202098519 10.4204426304 6.1564714955
13.4611312827 8.8705547581 6.8238342633
11.8505235499 8.1934552198 1.9198338245
8.0234604775 15.8458572972 8.6057838202
10.9225668743 14.8522874499 4.2698357895
10.3165279449 8.2489660655 5.4298388979
13.2477474667 12.5423088431 8.8602105969
11.7986106747 15.7498291475 3.1264153116
12.5012677543 12.193138085 2.0664904956
11.6572680416 13.4065921126 8.7096093201
10.3471437657 15.1499501314 2.2373773697
10.709287489 11.2434543713 4.6294514347
13.0631183297 16.269772587 8.0635118236
8.6086600489 14.2219945577 8.5394699258
11.8951306719 12.0628172914 5.6286130559
9.9553921703 13.2330082247 8.4416329814
9.576376324 13.7787231773 1.7962356961
8.2466002536 10.2883623453 2.1899710446
8.6265865568 8.7735369856 8.1597171308
11.807036523 16.0951978852 6.901849043
13.2059349017 9.2330741475 3.7121705933
8.1199466489 13.4950633259 2.7273164808
12.7590516454 10.7840979259 2.9230876491
10.5207782901 11.6071652277 0.1277026502
9.6858428535 10.0382379122 8.2464420775
7.501653208 11.6733350868 3.0493059734
7.714004434 8.6679954144 2.6043214056
7.8623003054 10.0338107274 3.949445319
7.5049114635 15.0781164743 3.4860122354
14.2831443853 13.7362431555 3.2440132593
9.0568138337 11.374919415 5.8790915576
13.0089108078 12.9798738328 4.4605369044
8.4979892441 12.8333921715 6.4028720944
14.5221886183 15.1163961622 7.6761016968
7.3724260208 12.0626100532 8.9513010459
11.9816937644 12.2515870621 0.2320083895
9.544226205 9.9829343495 4.9346251204
11.0064186048 9.5714878382 0.6039790291
9.9737498609 11.3398303126 7.3541810571
10.6743783683 12.3272012638 1.5036928629
9.5305359544 15.0590463311 0.8388171962
8.1317095195 14.0383352585 0.9317458731
13.8256111298 16.279301055 0.7369857596
9.027430555 11.7576791751 9.1064904085
9.6679838584 13.9149336175 3.4828905406
13.1773455625 11.2869924358 0.3794593328
8.5998379047 15.5529113807 6.9624212945
10.9312111967 11.5203817189 2.90679234
9.8065170659 10.8372469762 1.5566437565
9.5381930691 14.0808787187 6.8786565742
13.9302241359 10.8519402488 8.0644225001
9.5461519849 15.3418291036 9.3507830969
11.4204350867 15.2721217008 8.5234579296
11.4651105826 12.3247459903 7.3815835319
14.4578438124 13.5174095409 8.1320627248
14.2249928786 14.071884411 6.1537927222
13.6744196209 9.8539003285 5.4950886536
13.3010511382 11.2825624922 5.0521869932
7.9286848874 15.8685934504 0.6236274348
10.2776964053 13.1755709278 5.0110100225
11.1344936045 8.6294443832 8.2840665935
6.7936572378 7.3952985781 10.3150506801
2.5318232489 2.7467632806 16.9114023281
2.3134894255 6.351492746 10.200404753
2.5713627746 5.2663988998 17.6349555855
5.2819221436 5.5606269877 18.4080644234
3.1210071262 3.6736185774 17.8893648289
3.9204514858 6.4533679921 18.0489172367
6.194945296 3.1306821298 10.0320354176
6.1663000039 4.0360233839 14.8622144423
4.4920824905 4.7927101461 17.1535118342
6.5237485563 1.6520772345 17.680300353
5.0067598495 4.8689026544 15.7034718567
4.3161423797 3.7206026482 14.465362987
2.1019176956 7.7729735039 11.0986429486
1.6853356364 1.8308376382 14.3382963147
5.7075653115 0.2711679116 9.9102477526
5.7442895744 3.6572452669 13.3263702453
2.8282402629 0.5270854796 14.8065371083
1.0628781485 7.0437430483 13.8850626529
1.3924590579 7.2581794271 15.6215292569
6.414452012 8.0417272375 13.0264230877
7.0766529225 7.7965365694 16.9992268373
0.0365051961 7.9213984567 14.9593441383
3.6837118457 8.001275079 17.4692927073
3.1908464218 7.736518865 12.3553773621
4.9943646363 0.5864437117 12.0603894975
1.8380570575 2.0864402713 9.6538318943
4.2478019696 7.7862831924 15.8750466031
5.3467170146 1.3495224044 16.2784416208
3.799220898 4.3136611134 12.9179590609
1.5832697466 3.1333982737 15.4778952765
1.2598029814 0.2840728444 14.8928199458
2.7329414982 3.6923208973 12.0433725512
2.9631620978 2.2831984664 15.2280024148
4.7086703566 6.4449834371 15.0697032592
6.5825401053 0.3588835237 11.6514147683
5.7924354481 6.5278590959 13.5038891676
3.6403591105 1.5491755647 16.5184700813
4.1107378445 6.2535959308 13.1539989138
1.5526229991 4.9281712965 10.4939038174
3.5230592787 5.2864898178 14.4580722304
3.2235296394 3.4198741864 10.0736336317
5.2908088303 5.31131552 12.4364601247
1.0602027306 1.450512497 11.2484637675
2.7078200088 2.1511295613 11.3437216003
1.0358469708 4.2849697558 12.0165133825
6.2832895221 5.7976200961 15.0420802286
1.4145059331 2.6020218669 12.6033410552
6.0725048544 1.7822165005 12.8244132629
0.8916413329 5.2439160967 13.5919702189
6.902570027 2.4310126947 16.0347164262
1.9067818643 5.7897472127 14.9937663743
1.1113118525 5.7979921565 16.572969253
0.776466539 4.5492339066 15.1356874779
6.8380737211 4.9155293708 13.5543402763
6.5657934662 1.2240733969 14.4839520613
7.0989251229 2.7678419441 11.5358258049
0.4359686425 0.3922221725 16.5907299194
0.1044038821 2.2762103523 9.7898806509
0.6094370304 2.2231666036 16.9270779621
7.9126464177 0.1194682435 15.1020387866
14.5963525288 1.3987108047 18.5857473521
7.7560450204 5.2411411452 9.6568005678
12.2078927987 4.9690031281 18.782143236
14.4719990571 7.8561115701 9.8700151457
14.2287423581 3.0613622123 18.0418330688
9.5088703541 4.2505338406 17.7821509983
9.142267687 2.5414828571 18.1551613361
11.5277814497 2.8214495257 15.456790022
9.2783122873 6.5646500889 15.366662557
10.8228396449 7.012497377 12.8184374319
12.4985858249 7.6525391722 12.4336601061
7.8604170663 7.9571783698 18.5524698052
11.163661713 4.8668973532 17.4704492426
7.6428790368 6.2934406218 16.0779901756
8.2265297 1.6620523936 16.9931307727
10.9315368117 3.9668638691 14.1998473919
8.348744889 1.8276267542 15.2275493804
9.2363119864 6.7333774807 12.4134824305
11.6075946361 1.414069339 10.4046189463
7.3512680508 0.6320005204 9.6993964335
14.6699425265 4.0585825079 10.3668466532
13.107256004 6.8875308885 9.7909331067
14.2749641319 7.6632523436 18.2332753994
9.0927173872 6.8630012297 18.746593622
8.6394738948 5.4802075787 17.1738337783
13.4518871604 6.5776839744 13.7875735651
10.1926830376 6.4887407813 17.1292928252
13.192691038 5.0912640531 9.901704135
11.7668695877 4.8353687449 11.3462870015
14.6316722029 7.3947781711 16.701249387
13.300136929 2.1674358945 14.6805931
13.7808000215 4.7453961902 14.381105453
14.6506927611 1.4659609148 15.3262671598
12.6602277978 0.134799458 9.8032228584
10.2840376643 6.3131909762 11.0889011268
11.9444476838 0.168522367 16.1213566028
11.8253412061 6.84285581 14.198717305
10.2038686467 4.9222707248 9.8246905154
12.4114616743 1.0632108693 13.2366406965
13.8793946881 5.0205028153 16.1966934102
11.552345324 0.5713476401 17.8157857569
10.1102143003 5.6000145123 14.1292602886
11.3993087616 2.0470620183 18.3804355702
8.4362146761 7.9537612285 15.5272452141
7.4785786465 6.2778161149 18.2139458746
14.5959207419 2.7982306714 11.7345862011
8.6983733501 3.3236860034 12.096428154
11.2941171265 3.0944681058 17.1163729911
10.1118247089 2.8304469978 12.8685024675
13.064333603 2.4696599904 12.8080158004
12.9963925679 4.1626526538 17.4136617837
10.5626032498 1.2553332575 13.3015108497
10.744706222 0.0314526068 9.7914994598
12.9835631392 6.0897206752 15.1823361582
9.953952905 2.3170111541 14.5810325645
7.4227310718 0.0957735266 17.8612881658
12.0102201484 6.4918111886 11.2932462154
11.3131138617 1.0967409493 14.7690658743
11.5221128435 3.7034737443 12.5650544097
11.5290181723 1.9049989543 12.0953921877
8.3811367352 5.1585003299 12.7837045919
12.5363824991 3.6069415267 14.1587657529
8.1697785893 4.2794202155 11.0290310358
4.5075464747 11.676263705 9.8419228318
5.8545403377 16.2415045407 17.2413313185
2.8129246342 15.2190821018 17.9468547715
3.0638767485 10.7305743028 10.564492776
2.2748924027 16.204453112 16.4383097688
1.5437386285 10.7391355039 9.7010791085
1.2985633067 8.2340036378 12.6797783255
4.6621991831 15.3438376816 18.0318577547
5.9164131383 16.212459533 15.490352475
5.4628808938 14.769246485 9.4268070834
0.7529518172 13.368956678 18.6362757667
5.2946940547 13.5059325098 18.4849299848
2.520522701 8.4467389435 16.3388785341
2.3991558668 13.7280471529 18.3579022474
0.1506347455 13.2145311636 16.9599505598
2.7176450167 9.2087737455 18.0904121501
3.5295205501 12.4081770784 18.3608549003
4.4153003165 9.3964992624 18.2736733719
3.8275543473 13.8756860524 17.27410557
3.7966762329 9.5592143719 12.0913586093
4.6685554455 15.0976570924 12.8127773082
2.8194334327 9.1932239377 13.44185142
6.5378200554 12.7447016739 17.8055803523
0.6381927653 16.1516314256 11.6609911026
5.227193458 13.1299075742 10.6431303281
0.6140935127 15.5346950138 13.4263185649
3.2022478647 15.2967727028 14.253331893
0.3315029711 14.5574775421 10.820021202
1.1093481292 11.2890774427 11.3823404595
2.7099599896 11.1389561994 12.4106797469
5.421978713 8.5537033319 17.1466884502
6.2603684155 11.6088038623 10.2357679819
2.3420681125 10.0963693265 16.2969167801
0.9869968822 12.8170530949 15.3254526365
5.025013492 9.2841510115 15.2751188053
6.1846961637 11.0491849374 13.0828613461
3.6461993069 10.960704556 17.3859779682
5.4347160051 9.3850831091 12.2880067567
4.9242369408 15.3636160414 14.5011330962
3.8302182501 10.803196941 15.6731106867
5.2193411472 12.3654803113 13.4944071359
2.3428507251 13.4656086877 14.4580547073
3.3617602689 9.2922774667 15.256691341
3.3333667138 12.5297101217 12.9668504705
4.6137259348 13.3847541415 12.1277038128
5.8130144461 13.8563664878 13.2696536357
3.5870594318 14.0441916988 15.590451511
3.7659978344 12.5272598421 14.8329995038
2.9618212954 14.2617572365 12.6718572526
5.3806706305 13.3497376172 15.0692250205
5.1685873706 10.1048336492 16.8987591018
1.5478858778 14.6051640974 11.9572883147
1.1765724938 10.2608366463 13.4029531151
6.0524462318 9.3498774524 14.0383984665
0.4709744787 12.9961323557 11.5586212026
6.3540583701 11.2828226996 16.973622092
6.7624520778 10.6250291309 11.4905453562
6.5356369254 12.6091302529 15.9997093777
0.0360043259 11.6952410686 15.8649549701
6.8925941481 13.2761288572 10.2284106402
2.4623491786 9.36395152 9.7667065574
1.0615947089 10.8871774141 14.9949630567
0.5235282176 13.8571496551 13.6311588706
7.099233601 9.0377040034 11.0632350377
7.2491586326 15.3782917141 16.6411045267
0.0775808479 9.9985932745 12.2258148706
7.9626997139 11.1150427846 12.6724861368
7.9287664837 10.4951455915 17.1304900927
12.5709910779 14.6815564064 12.3421829214
8.6843468016 13.4023217146 14.270506674
10.9493069038 14.8567973706 15.5399756537
10.3706621695 15.790944455 16.9490757806
9.0424053681 11.7000062061 18.1606399178
12.8176937235 11.7717123134 13.582360231
7.4596177662 14.3098985042 13.1039162838
13.562859377 13.6303780303 11.1665529574
11.877387452 12.0194583673 15.5549304232
9.9062927437 13.2492898272 11.5480914896
10.8206979231 15.2385329764 18.3690600424
13.7121311027 13.2219354704 13.2853173719
9.4681031972 15.0323882444 11.2680155285
7.4913726181 11.42784494 18.6823597445
8.5386160344 15.308212175 13.8853738049
13.2474480014 10.3211770111 13.4882107776
8.102435838 15.5173850391 12.016673456
8.878199482 13.0570874704 17.0767095736
11.8630309518 10.4048113777 16.544278903
10.4945746649 11.0150230309 15.7155719419
13.6326167125 15.5787182645 11.0356055108
13.490018678 14.3384472809 16.9793214178
10.6238728901 10.0521696223 14.0049182671
8.1910938685 13.7549610719 11.2788098243
8.2314364728 8.2914489491 12.5102906461
11.4885896499 9.8966466698 9.5786115259
8.6504566127 16.2641789311 16.5128134263
9.6904854519 8.2735274798 18.0335056529
14.4670631883 10.5538799118 18.7446427242
7.6090477206 10.3766475304 14.157462196
9.931249639 8.2540171827 16.4458318393
13.4273928868 10.7913225758 15.2477380033
8.5889964813 12.6747951056 12.6276893736
8.1828578118 12.8353521999 15.6314729651
13.5178812006 15.9371541912 16.7920285366
11.6182062662 8.8825367525 13.4380612979
8.0266528664 13.136883942 18.4530940684
10.3768719439 14.0762828071 17.0578615892
9.9254053812 10.4095742075 10.1142780271
7.6048422112 13.9272502212 16.8312406412
8.4461693622 8.9538606165 17.047169521
13.6782252902 16.0422703931 12.8574749212
11.0633174 9.316714596 15.5575295406
10.2021912674 13.3231919514 13.2495898884
10.0848423967 14.8441656465 13.9391029389
11.7693599973 10.677058757 18.3587074917
13.0486632317 10.9944610874 9.7552967263
9.0733517016 11.474541574 16.3815163119
10.4913077848 12.4629579083 10.1476076196
11.9540446763 13.6585971846 16.0121472383
12.5023254778 12.7128257891 10.1996085824
12.8203755035 14.9308913162 15.5461646421
11.6256312717 11.1993930605 10.9229177927
14.2988636482 9.968770299 10.3082985553
14.5981360089 11.8673481461 17.94575997
14.6450107742 8.5427873497 11.4299325706
13.2651459815 14.7831124719 13.8237117015
12.7435432913 15.3835777004 18.3247905946
9.7969309664 15.9867865766 12.7370762248
11.6946350076 10.7023978308 12.6451362556
8.6929364951 9.7618075634 11.407911733
10.9011787003 11.8081661123 14.006531832
8.9796738388 9.918007914 13.503150323
10.8714578366 14.6721472657 12.2757608278
7.7624702082 8.7525440276 14.072329769
12.0876534586 13.8161789719 18.0049326315
7.3900408833 11.1120434549 15.5971419395
Cartesian
-4.3195596255 -1.0236568276 -1.1217565423
-0.8020528273 6.851805036 0.5236034187
2.8517802821 0.2154813874 2.6090477993
-0.605073602 8.4300550218 -5.8773507318
-5.9506394104 5.3550275992 1.6705168005
3.1139494489 -3.7570820223 -0.94406284
-2.6846916474 5.1472264757 -3.7063495664
-0.9111600444 -5.7096464807 4.5269707464
-2.918032974 -9.1021662159 8.2445386158
2.3472667049 0.3149733958 -9.1982264079
2.5948329202 -9.2669594175 3.5450972231
11.7824635125 -2.2427033065 1.8210028117
-2.4782853704 0.2364465448 12.3169949679
0.8056784085 9.3017904922 0.4262825175
-0.9753495263 9.5757735096 -0.5886533206
-1.2672949508 -6.0133062584 2.4456483015
8.2388851207 -10.6566729299 -6.6148273232
9.7742012358 1.3555029792 -0.7999631544
-6.2167170387 6.4076334592 1.0310637931
1.0422893661 1.0342657632 -5.2197872209
2.3317038135 0.322273457 -0.4580572088
7.9472759129 -7.9639050912 -6.2142242063
-6.0857535307 -3.0332500793 7.2470733645
-2.0686345962 -2.3815841641 0.7861367289
6.5570397044 5.5146219751 -4.1424470489
1.6071626011 -3.0620566435 -3.6475505964
1.9292964478 7.6390448294 0.5874615762
-1.4140236855 2.5536712855 -1.9013091306
-0.2174168383 -2.9750818886 -3.5999142417
3.8405529386 -0.0467957192 -5.3721872583
-5.8205645546 -5.4162303897 -0.068828634
-2.0996844362 -1.8369466239 1.9940353927
-3.0612038577 7.5375578718 4.9800988941
-2.8816568513 9.6495713473 1.245683295
-2.6167596775 -1.7327594647 1.1158592732
5.3208343328 1.6380209447 -4.3040044527
3.9008522835 -6.4021174102 -6.7907003242
-3.688439979 3.9188609635 0.5398711046
6.9872910881 -2.1183619115 0.7630543063
-9.3197491893 4.5971244149 -6.2767049864
-10.6708241102 -3.4438097829 6.0653683864
0.208500523 2.0359713477 3.759101739
-2.0445117612 -0.6327780652 8.6263037133
-0.4303549744 3.4526966604 -3.7814766897
5.2312635553 -3.4019210846 -0.4837142141
-3.1163346683 3.9821625565 2.0587350439
0.4946377435 -1.5671844286 -1.3875488072
-6.054881355 12.2462758535 3.475658121
-5.3580657145 3.96389036 -1.8902017972
5.3126386588 -9.9203703515 0.7782145642
4.112040631 -2.190382655 -2.9098220801
1.6795398807 1.687706004 -0.4126948413
-3.1314661646 3.8902018593 -3.5695225519
-0.1292183021 0.6741270373 6.8429231747
17.7680872621 10.6842764039 6.7641506839
3.7632892169 -21.8968715049 -19.9203290113
1.8922109621 -12.9600214713 -18.5704221645
-6.8171572257 23.7626289861 -2.0329646684
3.0792074885 9.3699472271 -20.0307760583
-1.020805712 -20.6402648663 -15.072136521
-12.5191857855 1.7667994415 -15.6878084522
-0.6398499139 19.9874201341 -3.3896252727
13.6898157017 -5.0364618041 -22.7426605558
3.5605796867 10.3716780908 0.2562203945
13.7044697087 -9.8571505166 -14.8717341426
-11.2961719033 16.4706303745 16.6465474763
16.5790238977 15.6719485229 10.6197803618
0.7743950457 -12.2704425358 -10.3997479503
1.6714892777 0.489425763 -0.1155590907
-4.299369473 -2.4384162634 -5.2819216923
-19.175136403 -12.425302097 -10.8117579434
-11.2398836615 11.2316326795 1.7025906484
-2.576942538 13.3986256194 -0.1855042749
-0.4893848044 32.4092269338 5.2338245019
-8.6547445336 10.9992622901 -20.6605895135
9.5487963012 -5.1319904853 28.4576280519
9.1707290395 -15.9687427422 -9.0115705006
0.3581904184 -12.9540988845 -11.0054688321
7.8857972265 -3.3109869955 -23.7214117928
-4.5700306232 8.5252180135 6.8995606024
-22.7305898712 26.9530509168 18.9082276231
-11.9938909386 3.5414738299 -4.2831777358
-7.7051689518 20.4361103122 8.6293263316
-14.0368759061 3.4685977099 9.8038967793
-9.3320644439 -5.8021242798 -13.2321223842
-1.4275556426 0.2021708903 14.7143937831
10.3609434295 5.0394248471 8.2129575389
9.4142097143 -14.0462499331 -4.1961589291
-4.6203825165 -22.7562190294 7.0670876682
4.2736282944 -2.533592982 22.4649379744
-1.3474667968 22.5776649183 -16.2614541693
-13.8272240307 8.3784493133 -18.7031682488
-9.1975361804 17.780161632 -11.1474960849
-0.5301035083 -4.441982115 15.1567070877
6.4526930144 11.6543434775 -14.7621949666
-3.4480422293 -6.6569196515 -12.4698628732
-8.9927141006 18.4228313963 -12.4750882363
-26.6760305911 -3.6420811845 -25.4299656454
-10.2803176485 -1.5463155731 26.8350012078
-4.1039482647 -5.564903179 -0.9214203034
-9.4886057174 19.7968883376 -16.0774812676
-2.5203799735 -4.110184742 -7.633286536
-2.4377246547 -2.3969834397 -9.2193246089
9.0017943589 10.8446282906 -5.0472713254
12.7559601505 5.1520393322 2.9315580746
-21.8934070032 -11.5983280008 19.6824054703
-16.2590954146 8.506622324 1.038621521
-13.8526192788 -2.5186907667 -1.2836878118
5.6713231396 37.1602107209 -10.7570740531
-18.985765217 -4.7715643339 9.4083670157
1.0193959172 3.5595811424 -3.9879786462
-6.478980091 -5.3922110336 5.6598029355
15.7698573548 8.8583190572 -5.5988423665
9.7120851877 15.9406207775 -14.4062826918
4.9155905185 -5.608996181 32.111079291
-10.9980295114 -4.4097954984 6.5897494626
11.0320526039 0.5591404119 6.5708389801
15.2807210998 21.8115711952 5.2033480399
-10.9062431615 -13.487829792 4.931425683
-7.6798767915 6.176550108 2.3420519561
-18.050345259 14.9980184261 2.886945588
-12.0216874469 11.9258949716 15.2186464938
-10.8612244585 -0.7160572256 4.7284019694
3.2418948993 -2.3940211893 -1.9347022535
1.4001934432 24.9129773418 -4.4353924947
-15.5537394317 -5.3748420757 0.1248054469
-18.3237018761 1.3124780313 2.8268987194
19.3653802017 -15.1660882629 2.7038154001
-7.0882343883 -9.9768379262 -0.9635820559
-7.8174520824 -11.9971397915 11.9503355048
17.7919304014 0.057156628 1.4633267486
-1.8628900005 -15.3920635666 18.9929737266
-14.8096113121 -6.4961151416 -17.4135349404
5.5805082462 6.107515963 -1.4242568077
-16.4119853093 24.4248633959 -1.0913684507
-15.5345713639 0.6590736467 1.3218326235
11.6201249701 4.4361073272 16.1452355544
1.8849063869 -2.5786680102 -6.399998677
9.2736293205 10.2422090876 -10.1733203476
8.1260679824 9.0324028439 -6.5927148687
-4.1653933085 -15.9112250689 1.774874942
-2.9162984022 13.3596618421 -13.9845845719
13.5548672645 -11.8750877638 -2.4005782197
6.130288781 -13.8471657467 -17.5796651383
27.416567218 -3.6884451389 -13.8847198909
-5.0167986584 8.2331119723 4.3049496249
-4.974267785 -7.8287008456 -2.9482290459
6.0875150565 8.1004445225 -3.0552760658
4.7764118816 -4.7806250519 -8.6552740788
6.6401868586 -14.5442885716 17.7304321133
-2.0128294948 7.1130213487 -14.2079546516
-10.5398477362 13.9133942697 1.9049076338
12.0919885053 3.4752500129 -2.5355766333
12.6649371212 1.5993003905 10.6363225914
-17.2621764311 19.9552961555 -0.6911678883
-1.6479899484 -22.315698138 -18.1356208254
5.3732273729 2.6048367985 -15.053247561
0.7538604976 -23.1005671045 5.6760208865
6.8886227272 -1.0854901129 -0.5897410285
-7.1316529274 -12.8039790752 -6.6557967568
-0.4079625898 20.1844761981 -2.1665510119
2.8971379543 3.9998847016 11.7944778208
13.4515132471 -8.8808744498 1.2104477367
0.3463814435 -11.38310974 3.3158902386
-0.7665793476 2.4207681676 7.166683755
-5.415758564 -27.9005124483 11.3953134404
27.8235568841 -18.5906595295 -23.3317302108
11.4791079719 -5.1957737693 1.7191927955
13.0690536546 7.3605543603 1.7152253247
-5.4881891713 -26.8552565521 18.3484372498
-12.1928211873 -1.8715640492 18.9726833621
-7.60962568 7.4320189583 4.5544167772
-14.0728063808 1.6116340501 3.0977466871
10.374016001 3.7510556974 -8.4497842835
16.8266593305 1.7229890838 -6.9492679859
22.1861183302 7.1244349331 -0.9428471096
-14.1394038496 11.1910935507 5.9624287108
26.816127402 1.3129310885 -14.5252982516
-0.7502053025 -5.3378788127 -15.4764632881
14.7512354323 6.9159441037 -7.2806999315
-2.9878332981 -7.7508849798 20.8822511165
-15.7211207857 2.6147875016 17.8921941481
11.5582896837 -23.8769582149 13.7989637579
-6.2961672149 -22.6241049776 -6.3308907958
-18.7322979624 11.4410080104 7.2453194358
-4.5055296363 -11.2993234745 23.5955995085
9.0885291589 -13.5540852573 -10.9218463539
9.3976777791 16.6439716095 -8.9447863816
3.6622633643 -0.32039782 -3.9463808656
9.4391908861 -3.6852240847 22.1781731447
12.152539629 -12.652198184 5.193683993
13.3875778137 17.2136325531 -3.000672281
6.1257638568 -12.7953440389 -3.9800331317
-4.9973869603 -2.5306828626 -6.5354310521
6.7788286324 3.6309045451 12.8676360381
-6.9223079376 8.2580942172 24.1202458498
-8.7919485278 28.571269367 6.5368935015
9.2245074782 3.8029607253 -23.1163876535
10.2299195766 -26.1711626281 1.7883739267
-12.4199226612 7.4517771061 -7.7836134207
-5.6399465274 -4.9031829961 10.1148418183
17.5661621883 -0.4519407018 -3.8985172405
-2.0780487583 -6.3201527772 -7.716475712
0.456808699 -15.9618195447 -2.0649462586
8.594902214 -10.1173165905 -9.3390282353
-4.4715437427 23.4361641527 -6.022290104
26.8505502654 3.461578235 9.9293714759
8.4368039489 -8.1440476183 3.7750398862
6.662315002 12.0972099054 14.5629296036
1.2133308714 -5.801318321 17.2871881665
-16.2303689813 -4.2091234197 -12.4551627968
7.7553027345 1.1356554505 9.0471506496
-14.7004351744 8.4894803614 -9.6938628316
-2.8162585755 -4.0459710083 14.9124901388
-4.7743479234 9.776212889 17.7285145652
-5.80965668 -3.5754353423 -12.2344984915
2.7392697809 4.7903534669 -9.9396152044
-7.6143790642 -12.5057149289 -10.7348507339
-8.5893680688 0.1975653901 -3.6124597208
27.2405377261 -0.1315064627 -11.7130524482
21.891907527 4.8056826965 5.0283396181
-22.3381155926 2.6501988825 -6.7791053054
2.3394471497 11.8589273248 -29.7538376367
15.2941775113 -11.2368420965 6.597829184
13.4625510066 1.4508275007 0.0507498076
-7.1877474952 -7.8701761663 0.1635111074
8.9246391754 21.4802739096 -17.882576773
-4.7909071889 -12.685656787 -3.5224428049
17.161094566 -7.2797490939 6.4795880351
27.19872314 3.3054102295 3.745799172
-4.122610615 6.2684831036 12.6492464683
-12.4955586233 -0.9767340155 -2.8745171612
10.903439769 -13.3199690227 27.1227648497
2.883661463 -2.9534091302 -6.9182075665
22.3126422332 -19.4381583334 -0.8562464375
5.1855234241 23.2324851048 21.0179525704
-10.0694294768 -5.9334153075 -12.8423461802
-2.6499466398 -14.8628810377 -10.018167597
4.5548482779 17.3696221878 -10.2971909745
4.9441995744 0.1605604845 -1.9451908703
8.6832151071 5.6949664644 23.0112176442
3.8961344454 2.610341265 -13.1502137498
-10.6880546414 8.4854328436 -5.9612655966
-2.7873473565 -1.2487711442 -8.747398767
7.7185394889 -10.8721844624 4.4800410447
-16.8351327479 -13.7608903795 14.2701789091
7.0963380071 0.9090630268 1.8406364341
-3.5273540854 -1.1790909868 16.0987759797
-12.4474671805 -10.6836345683 -3.2134945628
38.0202969543 -16.3193001933 -2.9586797814
18.1720746908 5.2579685127 9.2066439395
-9.4292414375 -7.4022910924 0.9015435448
15.9463198552 -14.7172649652 4.1458452182
-8.9341224093 -23.8363851231 4.3973776819
22.5526617948 -21.5301406722 11.3523176358
1.7445339436 -9.9388133008 -2.1194576996
9.1718097609 13.85206385 -15.7739051798
3.2398820917 -3.1501890153 -3.7842071427
-3.9425195684 5.2987809697 0.2727774921
17.6336458244 4.0138428024 -21.5939739493
6.9832853187 4.1437159 -0.162992884
-30.8749412186 4.6718360833 -7.2137047536
-10.5662449377 8.2221714143 -2.0296110734
-8.8514157161 3.1245976473 6.0282653141
-6.4902339604 -5.9378135541 27.7133356541
8.3497879737 -37.5155932382 10.9363581776
7.8389844276 5.3851770332 -14.9981057968
10.5330882482 -2.7085892538 -17.7011165481
2.8229739116 -7.1278103482 -6.869111898
-5.5340192843 14.8982068025 -4.3634323363
4.1276962279 -12.6493526449 -13.4192019694
-8.1379101346 11.3795653703 -3.0717625644
8.9102964264 17.2643097965 20.6213930897
-12.5141560018 -11.2841960871 0.1265938402
-19.7429564656 -2.0292263217 6.3853683623
-17.011866827 -2.4620552493 8.7509318348
3.942161917 -7.8461577276 -2.658857613
-2.0621313176 18.0576955771 9.9892019619
-4.8517180256 6.9594191747 17.1229936184
13.3278024824 6.2771350564 7.8427022466
-13.8183695389 -16.1759574326 3.0825082262
9.625495251 14.3567451107 -27.8295694644
15.0155508036 5.6447954945 -7.9796577868
6.0888800354 12.8573152855 6.3962748195
-11.1216603974 -2.3076715722 7.9168221234
-19.5180699681 -0.3400678806 -3.1371730649
6.7164537894 10.5388858097 26.9414332858
-17.9775591029 -16.7352514944 6.8804135497
-9.3250393842 -0.9357817388 -9.5981589262
11.9431891446 -16.3916013465 -18.0141265743
-29.3815310999 7.7567751172 9.9699863373
-4.5308699855 1.5999058812 17.1191988714
1.2494139696 0.2505228944 2.0873358003
-14.4631414146 6.7625139694 -3.0290553589
16.3358440689 6.3674335126 -15.7718016919
6.6161920116 -17.4316933863 4.6048761675
-9.6935435053 13.2742631259 -0.7669803945
2.718947769 -5.4492303337 -10.077054904
-11.1873360377 13.6216391916 -18.1279662856
-0.346388873 -13.4088814618 3.9282170429
-6.961914917 -3.1675100203 10.6239921208
-9.1513233646 -8.0244154618 5.3073431307
2.5670878957 1.50273905 3.0819246705
-4.665305265 7.7715425214 8.556718437
13.9662692079 17.7853355309 8.4399273495
-14.4526518677 10.4967673341 12.1677675213
-3.7208244445 -12.6853404694 -16.8827511087
5.3277137235 -2.7037859097 -10.0898412105
-6.2470832739 -6.2228744444 -2.9351814084
-5.5132627965 -21.5843268845 3.1332664039
-5.7759496631 11.577552318 -14.5048807938
11.8095703911 -9.1669611278 10.2604668805
-21.158132867 8.8232915906 -2.4959679688
-5.7403945308 -13.6463160211 17.8114872119
-1.980879238 -1.3897891921 3.5440228066
-9.5135100731 11.2825664581 24.2789698242
5.5674691083 0.1491632859 10.1530656263
6.4785871864 10.9909962789 10.9151588922
5.0094968533 3.9533720843 -8.2931382823
2.1006251089 12.2884769811 -7.5050207708
-13.6776003598 6.3941396542 14.6950194177
2.8241463995 13.1922951472 20.3598899912
-11.7287890163 7.2417091715 12.6108436085
9.181250572 2.4424559081 -11.2325804642
15.4645453019 -7.3866998956 14.0646568796
17.6295034621 -14.7361013708 -13.0104048222
-3.972850641 -10.7640318431 -30.4382025917
-23.8517525167 -2.4524518694 22.7880499768
-1.8937676893 5.9689303732 6.9771320908
-5.0314313923 2.1853064685 -5.3025882282
-7.9730542681 7.9302073702 14.244143791
-10.444954616 3.159576382 -1.8375072551
-25.5972445644 16.4953252087 -9.3141684945
11.4551070595 6.2719734735 -10.3490907556
-31.4967316595 -8.1730001743 2.0589549294
-5.2674716092 -11.3754417548 12.8548938224
-16.8248894274 -8.6175468787 9.4938970613
-19.7683687774 2.455702138 -7.6304350966
-16.6375738561 -14.7582595628 -11.1439013583
-1.1736219439 -2.5969545414 -8.3438238445
-14.8082277463 2.1583692657 15.3532050404
27.9919719832 -4.2349081804 -2.6181563028
1.2649636891 -14.2717243175 12.3877428738
6.1084723284 8.9468669454 13.3896992044
-9.9039136731 -18.7938879974 -5.3018055862
-15.3963421196 -0.6386166468 -9.243949559
5.5377280567 -3.9617106744 9.7572466968
16.5358603804 1.8830890829 0.0424099423
22.8980784249 -4.3933300951 9.2767012609
-2.2369041937 23.2243966803 -1.2050794561
-10.1747890697 24.2965186452 0.7989632264
-12.7817332161 5.7991793929 13.1964027345
-5.4143596976 -2.6062900659 -10.3614198238
12.5340124176 -2.4746584723 13.0916961754
-11.1745414306 -1.0202209382 -24.0723204588
5.3288635156 6.5299795388 -8.7041061788
-8.8561630783 -1.0374387328 6.8160044209
-1.5318890632 -10.0782277798 -1.7465591585
0.1535475072 10.6976344559 -7.2278770901
-9.5443287966 4.2526988789 -13.4098307339
-10.6177370897 5.1486473678 -16.2049791715
-6.3551645407 -0.5309088136 -0.109649986
21.4172666262 -2.9821635921 15.6278324117
-13.8886190235 12.9864921573 2.2571142342
-3.2787104665 -18.3058848906 16.016003294
19.3304982948 2.7461547058 -1.3767535735
-18.1826287117 -25.9049912921 15.7087632319
1.6381165474 0.8968516336 -1.6139930939
4.3190951634 -7.6495570861 2.4085165115
14.7295214494 -1.0542698083 13.5850580592
22.1154524069 16.7673928369 -2.8536270653
-12.7209718712 10.611681044 -2.0361054244
-1.3078394036 7.8192620223 -4.7973890187
9.0827112663 11.0839131666 -2.7816364142
-2.5025828749 -2.4488238783 -6.7916124385
3.8025626071 6.7524652774 3.9724857451
-1.779650155 -19.0473442407 18.8813742787
-7.8261442658 -11.1993791818 6.2589877017
6.6558904537 -10.9626367202 4.7965811733
-1.5962057936 8.9542334385 -9.7464612167
2.9164321417 -20.7850464075 0.5582929377
-7.2539718732 -4.6142062181 21.9253656093
-6.9477623957 15.5158105836 -6.5472946698
-15.0068314414 -2.5897075688 -26.6797611053
-1.4829315454 15.4553264692 10.5092305621
-2.3969083237 14.2663057706 16.7721881445
3.7337750431 1.8312740795 8.2798520945
-2.1316348681 -11.0572431979 -24.1705993026
23.7742142431 -6.4207050978 -11.740163999
0.4202477449 -6.9554833668 -11.5813194689
-12.5852880468 14.2144280177 -2.3954865113
-2.9977027374 6.1455909597 -15.3754773111
7.3891941288 0.5243835435 -8.4210334621
4.66747302 -6.5603448263 -0.7690383756
2.9285616066 -26.9275876731 -11.5386241589
5.4828659663 -0.2554728879 5.7857169534
3.4545989935 -2.8398428489 -1.0444034241
-1.98253286 -23.5267585284 -0.8359466087
20.6570445717 0.4396316793 -16.0775871806
12.9354564145 0.3085141367 -9.2051783797
-7.896510632 14.4416152456 -10.7412208705
-5.9336849482 9.5127251774 -1.6465242217
-11.259162482 11.2110334821 2.1932485299
6.1208355779 -16.8435301936 5.6106068555
-24.7657753409 3.5790103108 14.2824572264
-10.0408173619 6.3092770497 -7.8355460221
-17.5758236774 9.8469706777 7.1369720806
-7.8683013341 13.0696001634 4.2781037475
8.5418540114 -29.0705474993 -0.3254392893
15.2239744659 -10.79038525 3.8437775842
12.4047672592 18.2183971458 -10.0287090787
14.9858037735 0.0075386386 -7.9877623907
2.9970063157 -17.8289108657 -1.5139298293
11.2862315924 -4.4273296783 -2.0165677035
-5.5902432881 -5.8121881926 9.3543709939
1.4538937087 -8.4008206312 -2.5965228576
6.4101746381 -7.1931948427 14.7046028211
-14.2081479001 -8.1313083315 12.2705513492
2.3711697527 -2.3045131495 -11.1719826845
-18.4470682728 3.3881704884 -14.1298315119
3.1940722786 -24.9705954392 -7.2445844503
0.6360136068 14.4487299663 16.7894114048
0.888582427 -9.1374510012 9.4373946995
11.1413356872 14.6133111462 -9.2347897651
10.874696595 -7.6963154779 -22.8781805649
-1.1594002285 -3.3169774165 4.3759785693
14.7109134066 18.7630343926 -0.8494957222
-9.0132049195 -13.049813664 -8.2625703494
-12.6162602321 11.5699425222 -2.2878101235
-13.5370475551 12.9007219926 -12.8321787447
-22.3826206243 -4.2177350986 4.1099330185
14.6894515966 -7.2245187729 -8.523161724
-2.9671013252 13.3872480279 -12.2359429966
6.7188401191 17.0689232348 19.0615043393
7.6607182033 -10.6750010253 1.7283020965
-4.4531964621 -14.3746588802 -8.0240947052
1.0770083348 -10.384738507 12.1805621722
23.9199035826 1.7215838216 13.2549187721
-7.007153571 -6.3749452281 0.1471064832
9.8241928294 2.0040414475 -18.638011197
-11.3673300161 15.0297632398 -13.3510333631
-18.0990871422 -8.7432991577 -6.0231150446
-1.6280308111 -13.3381289625 12.4888932067
-1.5239277245 -0.461123244 -7.8870412979
-11.4089442623 1.5244060473 -10.8031456786
-0.4172473048 -17.0680009994 -8.3088987473
13.1949514476 1.3967646975 22.8237500395
-9.3724024775 0.184407602 16.5532885836
-0.8496033612 9.8233179834 8.4909097632
3.3182533933 -0.7692857071 6.5294402823
-13.055417042 8.2043559911 4.4810912077
-5.4716996165 -16.3512303954 -0.6830109284
-11.7055894009 -16.8954193296 -3.4963052075
-0.6620562335 -5.7884123325 13.2049735314
-6.4602895034 -3.3283192711 1.9052269766
8.2309862751 -2.9090645505 7.1480394047
-14.5803407358 7.464909626 4.0386470896
-18.3615762836 -18.0464905699 4.3170108352
-14.070952915 -21.1203601203 -6.7682176743
-3.2949983432 -9.0754438046 0.2231075997
-3.3702795001 -6.7688855037 2.2005833133
-1.6195108696 -21.9040118278 0.7091142419
3.7205200472 8.2281101247 1.03934447
12.2149114675 6.688865118 -21.0374833155
0.826082516 -0.5249146532 4.0740158758
24.8297586554 2.2391085713 6.5650399448
5.7815079514 -7.7910202546 5.1582881771
15.770345452 2.5581744724 -15.4971129069
8.2295486875 10.8603810328 -6.7929199528
-2.720658551 13.3685444748 2.6215008018
15.2405256971 -6.7933143649 -4.8027748311
-5.9704105005 -5.4135599379 -11.0660849199
-10.9722135231 -1.0067133152 -2.0530299178
10.1897485751 18.6013873248 -30.4289054367
-5.7770532263 10.033072265 10.5142017273
-6.7082436863 -20.2872493607 3.3716918255
16.369271012 -7.5899161679 9.9144459166
3.6101320122 -3.4756110921 -2.5747509835
4.587366872 -9.083510868 -5.0869619212
14.0243561965 -3.7948091444 23.8661094011
-15.4441030901 -23.5469216203 -12.2555639236
-15.5937891437 -8.3427651167 13.8425313395
3.1914797542 1.567059779 -2.5307494795
-20.2277267687 17.6478418917 -19.3222432088
0.4036347049 1.6223163317 10.5569482168
-6.1465753921 -7.4727820365 -7.8758989393
-7.0042298519 3.3030113863 -13.1367549662
2.5334389269 -5.8927148109 -1.6313168659
-13.216759524 30.8863309081 11.9380865847
11.8482194412 6.9926442826 12.2672645877
5.8249617266 2.2747464449 -21.1728276938
15.5008278572 -18.9442391637 -10.0331320638
2.0137152545 2.9355893679 -17.0546319031
1.9811211995 4.0372385504 23.8721715211
20.80617437 -1.3226211235 -3.9532746746
-3.4172293904 1.3254288884 -4.6111438735
8.0100954305 0.0651824194 -11.8275942752
8.9164894494 9.1224570557 -1.5106430846
2.3000100753 5.4458724543 -10.1930874091
1.5523071219 3.6540906806 -12.9871708889
-11.8206205336 3.17370917 -7.8041032143
-6.7003980691 8.6813321717 -2.8805956654
8.1817065728 -0.8176299864 23.2563736766
-12.3896916128 3.7604692654 -13.9586397166
17.9694893674 2.8972703373 -13.1271780547
20.1596312193 -27.9584664756 7.584182677
-10.8467429619 8.1984202968 4.0108689313
-4.8031048967 1.9183996069 3.6609359158
23.6234909051 -6.0406662125 -2.1933274869
-3.520599316 -11.134545897 4.7691534427
13.6627103544 -10.7840538791 15.0464135561
-16.0657226758 13.948231112 8.3480879996
10.7401778614 4.3368495839 0.3510089744
0.7745492888 5.3248165546 -11.4376762482
6.1432896714 20.0354026644 4.1434616032
-3.4417306299 10.4440613358 16.2003534773
8.5480773345 -15.5392293707 1.3222788559
31.9915256668 1.6806430553 0.8113191799
-15.1438156896 11.0926431942 13.4215658947
-2.7839471266 -14.0399378093 -3.9862068117
1.2556418517 8.5826443979 3.7918495776
21.6912232691 13.0491697265 -0.2745106057
-0.2397627926 3.2770805384 13.0115785079
-5.960251091 7.4196838801 -0.1920870294
-18.1337951046 -16.587980796 6.4975666905
-9.9421799426 -8.4893351706 29.182591204
17.8981852668 -5.5918071206 -12.2831061858
-1.8184365611 0.6576351859 -16.5745230963
5.3796113121 -15.2817442442 15.4679209324
-16.5330960901 -9.8619352876 -12.2858109081
-12.3186495982 -7.6365203513 -1.5137602584
32.4231103577 9.7725481391 -1.5338160264
-11.6082097004 2.6169654791 13.5589191248
11.0097048715 -0.9261794549 12.02086853
-16.5689064229 -10.8001573042 17.0269311634
14.0878237609 18.4729594389 12.3630397179
0.0258036968 12.6231825192 1.5923999598
-2.4223739882 -10.2267150038 -6.4184500432
29.4018075518 -26.5748033576 -0.2620651891
-2.7860383188 10.9794412902 -14.0108039306
