POSCAR file written by OVITO Basic 3.10.6
1
34.4016702815 0.0 0.0
0.0 23.744658714 0.0
0.0 0.0 44.5339490308
Fe B C 
864 1881 1575 
Cartesian
5.188833201 0.5664922781 49.585808161
39.692603201 28.2306062781 6.408188161
-27.726496799 -19.1828937219 1.696038161
37.795203201 4.4621562781 48.905308161
6.594383201 25.4347062781 1.271128161
4.588653201 -17.8391937219 46.809208161
36.076203201 5.1530262781 0.436968161
37.247003201 1.9678762781 49.176208161
7.650563201 4.8743862781 50.180508161
2.205973201 -20.6640937219 6.851608161
40.924103201 49.9426062781 49.653008161
42.284803201 7.5573262781 4.085558161
34.819403201 2.4883862781 45.590308161
42.456503201 27.0669062781 0.131914161
4.631163201 24.6854062781 46.755008161
0.604940201 -19.2280937219 47.489308161
1.801463201 6.2731862781 51.701908161
16.940203201 24.4191062781 6.488978161
11.580603201 3.6772762781 7.044478161
78.105303201 0.0695302781 6.658298161
-22.755196799 25.0762062781 51.456408161
43.076203201 76.1883062781 3.422078161
12.009903201 -17.1949937219 7.219458161
50.379903201 1.1605662781 47.285508161
-24.943396799 -17.0475937219 5.585858161
45.047603201 0.4724062781 4.493248161
8.905883201 50.0019062781 6.286778161
43.024503201 24.7288062781 47.173308161
12.073903201 28.3542062781 3.375268161
12.939403201 25.8284062781 -39.738491839
14.725103201 24.4940062781 5.781748161
47.168103201 2.0100362781 -42.184691839
-15.254996799 24.0020062781 49.398108161
56.127303201 47.5429062781 48.253108161
-13.025096799 52.9111062781 46.111508161
-14.283396799 -19.9209937219 6.508748161
20.169703201 27.3635062781 3.701658161
19.994003201 48.8606062781 46.424408161
34.417403201 -9.8014337219 0.067356161
7.526043201 34.5437062781 51.186208161
41.114803201 -14.8847937219 1.435148161
38.198603201 33.1484062781 6.977398161
42.053703201 12.7466062781 2.214918161
5.402943201 -15.7976937219 5.121578161
-26.294596799 -15.6421937219 51.373108161
38.186603201 15.0960062781 3.969898161
37.272103201 -7.9981637219 1.660748161
7.320643201 34.1107062781 48.529208161
-19.030096799 15.4261062781 51.543608161
13.157903201 -14.5742937219 6.182528161
-10.732396799 -14.8112937219 49.253708161
23.689303201 12.8578062781 5.898078161
21.908003201 -10.4938937219 44.820308161
24.165503201 12.7525062781 46.023308161
21.033403201 61.5864062781 5.957298161
19.786003201 15.2210062781 2.714608161
-11.515696799 -13.2635937219 47.118008161
25.078503201 58.8672062781 48.709508161
-11.308596799 34.3254062781 -37.986291839
-12.872396799 31.8047062781 -38.122791839
-13.628796799 11.8757062781 4.264528161
22.977403201 15.0477062781 49.336108161
-12.041696799 14.0339062781 2.580288161
-8.371456799 13.6181062781 3.035268161
30.808903201 63.3155062781 5.060018161
-7.685726799 10.9822062781 45.805708161
26.871903201 35.7842062781 6.002128161
60.948203201 -8.3088637219 5.232218161
-6.388666799 11.7368062781 3.446968161
-3.731306799 -10.6564937219 45.122308161
29.851203201 15.4070062781 2.606098161
34.247303201 39.0753062781 3.827358161
0.545515201 -28.8549937219 49.434708161
6.016473201 20.5310062781 49.960908161
38.533203201 22.3485062781 5.761798161
38.201203201 43.7825062781 51.263008161
0.995263201 42.3573062781 1.958488161
0.641049201 -0.8418257219 1.949698161
1.898913201 -1.6893337219 4.616838161
8.042503201 22.0273062781 4.537828161
-31.639796799 41.6145062781 3.508538161
6.575593201 22.6732062781 51.216008161
3.142193201 -5.0009537219 44.567608161
15.542203201 -25.8571937219 49.226108161
-23.170996799 -0.6986467219 46.430508161
13.073803201 23.6702062781 0.356063161
-11.804196799 43.9154062781 0.732758161
-14.310596799 -3.9689837219 5.526678161
24.410903201 45.7486062781 2.685648161
-9.821286799 18.8813062781 5.509468161
52.154403201 -3.8328037219 7.107448161
22.196003201 16.7944062781 3.096988161
24.346203201 -1.1917237219 51.358108161
-15.908996799 20.5600062781 44.786208161
-11.740396799 -5.9448437219 0.944068161
19.121203201 69.6320062781 46.821108161
22.166703201 -2.7599137219 47.544908161
-12.386096799 41.1329062781 49.982908161
54.154703201 17.2931062781 4.343518161
56.965103201 21.7739062781 5.439708161
25.761303201 39.8029062781 2.029358161
33.412803201 -4.1782137219 45.425408161
-5.400086799 -31.3365937219 -37.751591839
-1.723126799 -5.0924737219 3.229168161
-5.601276799 -30.4798937219 49.317408161
-0.929465799 -2.7217237219 -40.360291839
-1.564796799 23.4385062781 5.225678161
-30.670796799 -20.6843937219 57.010308161
7.746903201 4.2848162781 8.147378161
6.275273201 0.3958192781 14.100908161
-28.724396799 -67.7124937219 58.780908161
0.623000201 -22.5631937219 53.220008161
38.987803201 77.8917062781 52.008108161
37.120103201 -23.4999937219 97.211308161
41.749903201 0.5938862781 56.249808161
39.440303201 28.1368062781 10.688108161
0.231189201 4.7533262781 13.137808161
37.808703201 28.9893062781 57.644108161
4.430043201 25.7405062781 54.244108161
7.482453201 25.5531062781 8.679048161
38.009703201 28.1482062781 8.528498161
5.181073201 23.7524062781 8.203428161
41.811403201 7.5369462781 54.223108161
0.801183201 0.7505722781 -31.698891839
-32.161496799 -22.1710937219 11.216508161
70.093303201 51.4168062781 9.180148161
41.725703201 51.2008062781 12.265008161
3.569083201 78.2687062781 14.729108161
9.655603201 52.9468062781 53.777708161
16.213003201 51.1232062781 54.898308161
12.539903201 25.8494062781 11.913008161
9.237663201 25.7828062781 10.447108161
-18.042296799 31.4883062781 57.035708161
-25.017096799 25.2562062781 58.490108161
15.170903201 6.2700562781 55.056308161
11.097303201 0.7041652781 -34.297391839
47.137203201 29.3719062781 54.048508161
44.949503201 30.9777062781 -31.903591839
-18.130196799 -16.0354937219 8.622798161
11.948403201 0.8307262781 -30.544691839
12.974603201 7.7664062781 -32.831291839
14.191103201 -46.8528937219 13.629508161
47.627203201 51.8766062781 13.279708161
-24.795996799 4.3938962781 13.385908161
-19.870096799 5.7962262781 8.052178161
13.708603201 24.3144062781 97.176608161
16.700803201 29.2311062781 12.628508161
-14.529896799 31.5059062781 14.417608161
21.743603201 30.9111062781 57.313608161
-11.101496799 29.0982062781 12.506708161
25.423403201 31.4954062781 8.047188161
19.712603201 -22.1920937219 11.433908161
21.061303201 3.6843462781 9.008678161
-9.720696799 5.4097062781 10.082008161
20.347903201 -18.3513937219 12.471608161
59.856103201 54.7295062781 -32.914591839
52.550803201 29.7591062781 9.058318161
56.423603201 26.4301062781 11.730508161
20.307903201 7.6693762781 -36.003491839
-8.891706799 27.7177062781 14.036208161
-12.844896799 -18.2097937219 14.694408161
25.622003201 1.1087262781 14.799508161
-3.701226799 5.7074662781 12.180208161
27.863403201 24.0266062781 57.696408161
63.060503201 51.3369062781 11.787208161
102.375003201 2.3674262781 58.048608161
-5.791836799 30.3092062781 13.031108161
-4.109666799 1.8494562781 12.521908161
-3.666106799 29.7403062781 9.115708161
31.288603201 2.7462162781 14.771708161
39.288603201 -15.5451937219 10.772908161
41.816803201 11.7298062781 10.729508161
-28.212196799 15.3768062781 57.844608161
76.269803201 9.1013962781 56.408408161
5.726623201 -15.5673937219 59.073708161
4.410743201 -9.4874137219 9.873108161
-29.318196799 58.7290062781 7.472988161
42.886603201 -36.6125937219 57.637808161
4.155853201 -37.4620937219 9.934108161
38.975403201 -57.7040937219 14.239608161
8.488313201 38.4647062781 58.491208161
39.530103201 -11.8365937219 11.100108161
5.402063201 -9.8837737219 7.908998161
41.026403201 12.4582062781 12.898708161
2.068533201 -9.2580337219 58.319308161
41.109703201 14.7078062781 10.492908161
11.124003201 8.7405762781 7.939458161
11.060003201 15.7874062781 55.753808161
45.868103201 -10.4855937219 52.808208161
14.884103201 12.3218062781 14.831608161
-21.342596799 9.5207162781 58.504808161
-18.940496799 -14.5262937219 14.480708161
8.956683201 9.9929062781 9.003988161
10.703903201 9.0744762781 58.942808161
12.541003201 -12.7052937219 7.782408161
47.162103201 10.5712062781 -33.229591839
15.227503201 -32.8732937219 13.866208161
10.502403201 32.6192062781 10.721708161
11.200103201 -9.1592537219 13.875208161
11.082003201 59.4618062781 -31.695591839
9.285663201 35.9419062781 52.598008161
43.615003201 37.8655062781 11.436008161
14.432103201 35.2110062781 9.321488161
13.026903201 -10.6999937219 57.885008161
15.033703201 56.8461062781 10.163608161
22.518303201 -15.1758937219 54.984508161
25.612503201 9.4521662781 10.201308161
-11.477296799 58.4255062781 54.012208161
23.649103201 -14.6181937219 12.748608161
-12.784596799 12.2801062781 52.141808161
53.112503201 56.4065062781 10.913208161
24.836503201 35.6908062781 10.150408161
-16.847996799 -12.9036937219 59.147208161
17.918203201 10.6134062781 11.986008161
-43.055496799 32.3215062781 -30.029291839
20.581203201 35.6122062781 14.229708161
-13.777996799 -13.6041937219 9.394338161
23.250403201 35.4522062781 13.535408161
27.877503201 32.0147062781 -33.279591839
-7.942886799 15.0290062781 52.583508161
29.205303201 -8.0727137219 58.095308161
63.190203201 35.6467062781 53.568408161
61.095603201 -37.2948937219 -36.922191839
-8.469086799 -10.6689937219 58.038108161
28.618003201 -8.0841137219 9.731308161
7.018763201 -2.0327337219 57.604908161
38.177503201 71.1295062781 13.484508161
-27.401696799 -4.4365337219 59.012508161
38.179903201 22.0045062781 11.568508161
7.134393201 43.7598062781 7.591328161
7.872023201 22.0717062781 53.556708161
72.581703201 -7.4991437219 52.905708161
2.237003201 -3.4386237219 12.556708161
36.150103201 -0.6691617219 55.278508161
5.155953201 43.7454062781 12.101308161
8.008893201 17.2404062781 13.511508161
6.739073201 -6.7177337219 11.146208161
3.099633201 40.2302062781 55.496408161
4.848923201 18.3321062781 -34.434291839
6.930983201 44.0409062781 10.226408161
2.160263201 17.9229062781 57.731608161
72.223603201 45.1927062781 53.137308161
4.523893201 -30.1478937219 13.012408161
40.706903201 16.3977062781 8.607898161
6.043803201 -48.5209937219 10.586608161
36.429603201 18.6146062781 9.549098161
10.664103201 19.5274062781 55.390408161
13.288903201 -3.9161737219 53.838508161
43.784903201 23.0641062781 12.089108161
-23.442896799 45.9829062781 58.258008161
-20.867596799 23.7144062781 10.572908161
43.738703201 20.3950062781 12.508108161
48.823003201 45.4285062781 8.252988161
43.095403201 63.3215062781 9.097178161
15.160603201 19.2027062781 13.093808161
46.323603201 17.4965062781 9.174188161
11.965803201 -24.8819937219 8.639258161
47.512903201 44.1461062781 -31.470791839
13.091903201 -53.4063937219 55.842008161
12.415703201 -5.2905837219 14.473308161
60.145803201 40.6147062781 13.287108161
-4.300076799 42.8422062781 54.382208161
32.561203201 19.1795062781 53.350908161
27.653403201 15.9876062781 56.134908161
-1.547206799 45.5257062781 10.495008161
-0.026080799 -50.9169937219 -36.744291839
-5.016616799 -2.1153237219 13.112008161
-35.822196799 19.2683062781 12.031808161
-3.872866799 45.6313062781 55.542608161
32.015003201 22.2452062781 58.316808161
26.993703201 -29.7217937219 52.784208161
-1.091649799 -6.8931137219 8.232438161
4.851453201 -22.1272937219 21.555008161
37.409103201 27.0731062781 14.940008161
41.590803201 54.8457062781 66.250608161
0.727563201 -20.5531937219 60.044008161
2.292773201 25.4721062781 19.603608161
39.652603201 5.7156562781 20.814908161
42.564803201 -21.9458937219 18.969508161
3.079623201 26.8321062781 66.240408161
40.805203201 50.6552062781 20.018608161
7.578933201 5.2958762781 19.874108161
-27.058296799 -19.2761937219 17.794708161
6.544983201 6.6392862781 18.419108161
38.312503201 5.7897062781 -25.862891839
4.212503201 -20.1898937219 19.003508161
1.714803201 25.3415062781 17.161908161
4.740853201 25.7181062781 16.732308161
36.868503201 7.6969362781 18.907208161
1.216403201 27.6622062781 18.189808161
40.098303201 29.1583062781 60.258608161
3.057743201 31.2045062781 65.808408161
42.968903201 29.3503062781 15.834608161
45.947003201 27.0672062781 14.875708161
44.812303201 -46.0865937219 17.851908161
-21.580996799 -19.3632937219 17.246308161
-19.058896799 7.1905062781 16.253208161
16.402303201 28.2271062781 16.111608161
-20.004096799 -18.6388937219 15.218408161
43.633403201 0.8884762781 21.039408161
17.162703201 7.5989962781 59.404808161
43.030003201 3.4736162781 21.544908161
12.740703201 24.6183062781 -25.055991839
-23.624896799 -16.9123937219 15.571508161
43.595503201 29.4958062781 21.986908161
43.691703201 50.8442062781 16.686408161
46.108203201 -18.7064937219 -24.555591839
44.106203201 30.3682062781 19.327008161
44.995003201 2.6695462781 -24.731591839
12.783803201 -16.7270937219 17.027408161
49.284203201 73.4546062781 15.945708161
-9.270166799 0.6221402781 22.103908161
20.006903201 27.5262062781 59.795708161
-9.565706799 -16.9724937219 18.751308161
-13.828096799 71.9431062781 65.745308161
25.311503201 26.8389062781 17.899108161
18.761903201 7.8548862781 20.237208161
23.073503201 26.6227062781 63.375508161
22.125103201 3.0912762781 16.293308161
23.945003201 25.0646062781 -27.279691839
19.367303201 74.6415062781 18.777208161
-11.980696799 28.9674062781 20.125308161
57.157903201 50.3918062781 21.471408161
28.703103201 23.8376062781 65.824708161
27.029803201 1.8152962781 19.876708161
-2.449916799 49.1592062781 19.621408161
-42.646396799 6.1420462781 -29.261091839
-39.347096799 3.9343162781 15.762608161
-1.669516799 6.7191662781 -29.281891839
31.446603201 26.4598062781 21.707108161
-41.445696799 27.8936062781 64.932308161
63.042803201 26.2427062781 -26.873191839
33.733303201 25.5682062781 21.585508161
33.304403201 52.8473062781 17.503608161
63.699403201 26.0058062781 19.989808161
-40.468996799 25.6129062781 15.077208161
31.509203201 2.5633962781 -27.015791839
-3.327586799 4.9856162781 17.956708161
31.990203201 -17.0732937219 65.328008161
33.545403201 0.4641992781 17.168908161
34.106003201 29.0027062781 64.656808161
34.202903201 2.2249962781 63.734108161
3.377973201 10.8208062781 22.191808161
5.604963201 13.4901062781 20.778308161
5.373943201 -31.9602937219 15.796208161
6.213203201 39.4055062781 19.388808161
41.892203201 -58.8294937219 19.030308161
40.494203201 9.2283362781 61.455608161
4.380453201 13.5265062781 16.772308161
6.110953201 9.6757662781 22.209108161
6.585173201 11.6825062781 59.911908161
-33.536396799 10.1309062781 63.543508161
3.442903201 37.4712062781 63.789808161
7.215013201 13.8844062781 16.890808161
34.588303201 -9.2866737219 18.823808161
39.454503201 35.6400062781 18.533508161
6.046093201 -14.9162937219 19.539308161
8.236713201 33.0174062781 59.884708161
2.851603201 9.5724362781 17.353608161
70.170503201 13.3164062781 20.613808161
8.123513201 8.5623662781 18.067308161
10.811603201 13.7720062781 22.199308161
9.281003201 10.8042062781 -26.231191839
-24.533296799 -35.2736937219 20.394608161
44.479403201 14.5562062781 -28.196291839
12.545903201 -32.3660937219 65.555008161
16.629303201 -8.3676437219 -22.628691839
45.433103201 14.0307062781 63.444008161
13.140303201 12.4085062781 17.326108161
43.226003201 -11.6704937219 60.683608161
8.718513201 -14.0255937219 20.523908161
49.994103201 14.3717062781 -27.991291839
11.431803201 -11.0930937219 15.907508161
-22.453796799 34.3045062781 -27.777191839
17.848103201 -8.8533337219 -28.906291839
59.067003201 12.3854062781 66.687908161
25.095503201 38.3069062781 60.663108161
21.316203201 55.6562062781 64.897408161
56.792703201 31.6896062781 59.923008161
33.963503201 14.6560062781 21.863908161
-1.238221799 36.8846062781 17.433308161
68.149503201 31.8220062781 17.358808161
29.269903201 15.0717062781 -25.247791839
-39.643096799 82.4886062781 59.989308161
31.611403201 14.6732062781 -28.184391839
33.714003201 -11.6491937219 19.470108161
29.374803201 14.7978062781 15.948708161
35.601103201 20.4568062781 18.196608161
41.508203201 -1.5754237219 15.675708161
36.117103201 47.0916062781 15.265908161
37.941303201 16.8232062781 64.071708161
37.470103201 -0.2194880219 17.335808161
6.733503201 23.4176062781 17.962508161
42.859003201 44.0865062781 16.677408161
40.102503201 22.8948062781 65.383608161
-31.764496799 -4.9926237219 21.978308161
4.311043201 -1.5418437219 15.232908161
7.011753201 19.4052062781 18.898608161
5.611683201 -28.3573937219 20.976908161
6.658453201 21.1477062781 -22.482991839
2.525013201 44.5172062781 20.618108161
3.381913201 -27.0321937219 16.921808161
34.617403201 -6.3074137219 21.558508161
1.856643201 42.0047062781 19.735308161
3.690393201 17.3419062781 -29.369991839
5.078583201 -26.4308937219 -25.543991839
3.206213201 15.9401062781 17.219908161
1.932963201 22.9328062781 19.502908161
1.412243201 20.0162062781 60.133108161
41.716903201 -30.0195937219 16.480908161
-33.149896799 -6.4264237219 15.860908161
42.973903201 -1.9383337219 21.057308161
37.218503201 23.7279062781 -22.787491839
-24.907996799 87.0740062781 -24.256091839
14.394803201 18.8943062781 15.622608161
12.514903201 20.9388062781 59.864708161
-21.151296799 16.1173062781 15.554708161
43.646403201 41.8214062781 -22.987991839
44.930003201 -30.7715937219 14.909708161
43.636303201 22.9248062781 18.343208161
45.441103201 -0.6905987219 20.485408161
13.583903201 16.9619062781 18.539308161
10.832103201 -2.5571137219 18.450708161
9.902303201 -6.9553937219 17.454808161
45.274003201 -3.8870337219 65.357408161
8.996133201 18.5141062781 18.854208161
45.074503201 19.2865062781 60.250108161
-20.623896799 -24.0047937219 15.992308161
11.445703201 -28.7895937219 18.520108161
13.718703201 -28.5618937219 21.451608161
-9.093376799 -4.8494437219 62.896708161
21.721503201 43.4524062781 -24.624591839
22.008303201 41.3072062781 21.070108161
20.507503201 21.6734062781 21.311708161
-8.916496799 45.6742062781 -23.530491839
57.469403201 20.6862062781 -22.866991839
23.062903201 -24.2205937219 20.878508161
24.783603201 -2.2532337219 16.975808161
-15.833196799 -4.6781637219 19.853108161
29.730803201 23.5859062781 17.219808161
27.815103201 40.4506062781 65.447108161
-0.962826799 40.8928062781 62.128008161
27.525103201 22.8674062781 -27.980191839
-0.751632799 19.2267062781 16.369408161
33.228103201 44.8335062781 21.679608161
30.731903201 -3.7765437219 61.246208161
-4.465696799 -6.5245737219 61.568708161
63.752103201 21.0790062781 -26.215791839
66.028203201 46.6484062781 65.464208161
26.025203201 -24.6152937219 63.243108161
-0.232828799 21.7161062781 16.265108161
30.630903201 44.5558062781 -22.528891839
-5.826556799 18.8345062781 -22.855091839
33.837003201 -28.3226937219 19.555408161
30.016303201 17.4373062781 19.481608161
61.752803201 -2.9706737219 19.492708161
31.514403201 -27.1030937219 -25.111791839
-6.078286799 -28.6125937219 16.054608161
-36.458396799 -5.1504437219 21.188508161
32.016003201 -1.5618837219 17.843008161
39.253103201 0.5030302781 23.954608161
34.566403201 24.7649062781 -65.274391839
34.704703201 -23.2938937219 29.206308161
6.440973201 4.3048462781 23.777508161
7.715773201 7.6346262781 -61.030791839
8.036173201 49.7059062781 23.873808161
8.903383201 27.2952062781 70.723008161
43.373603201 0.2200042781 24.421808161
44.129303201 5.3037862781 -19.448991839
16.769203201 71.6464062781 26.990708161
15.877503201 54.8119062781 22.981808161
11.176303201 24.1726062781 23.140408161
12.458203201 26.3151062781 28.435608161
-16.237596799 23.7844062781 24.985508161
-11.280696799 30.3186062781 23.017008161
-13.131796799 26.7689062781 -21.029491839
23.232603201 2.6577362781 -19.414191839
25.581403201 1.7006562781 24.147008161
19.108003201 4.1748062781 -14.958091839
-13.443096799 5.9678362781 -20.912491839
53.809903201 24.3329062781 -16.817891839
24.289103201 3.9138662781 22.859908161
22.132203201 48.0363062781 23.247108161
58.119303201 23.8893062781 27.848208161
98.656003201 1.1487362781 71.460008161
26.918503201 27.4829062781 -21.152691839
33.624703201 27.6688062781 67.655708161
30.672603201 25.5475062781 68.825608161
26.099503201 48.6440062781 -16.552791839
28.276503201 1.9829762781 25.135508161
-5.776846799 26.3822062781 -22.112691839
40.874103201 34.1649062781 68.927908161
72.795303201 37.9422062781 -18.736191839
40.381903201 -10.9178937219 28.256008161
34.915103201 37.9334062781 29.540308161
7.455063201 38.4154062781 25.019308161
4.037983201 -14.5167937219 28.390908161
4.233753201 11.9669062781 69.023808161
1.229223201 14.5462062781 24.418608161
37.684103201 35.8540062781 -17.830891839
-31.958896799 -8.7002837219 -16.446391839
38.078403201 11.5620062781 29.565808161
7.949373201 15.1572062781 27.127608161
7.650883201 38.4655062781 22.420308161
35.932003201 34.4264062781 -14.861091839
40.808303201 33.3128062781 -17.158591839
38.581003201 14.8585062781 -21.822791839
8.209103201 -36.3156937219 26.612508161
6.829793201 36.4083062781 -21.245091839
35.887403201 12.8216062781 23.209408161
40.224103201 8.1079562781 29.557408161
5.473613201 15.3720062781 -16.669891839
10.677003201 38.1205062781 -18.429691839
79.909403201 -32.0626937219 28.541708161
43.243703201 10.8904062781 -20.478791839
9.223203201 60.7011062781 24.297408161
-20.946896799 -34.0826937219 22.629308161
12.410803201 -8.1029337219 25.131508161
-18.541296799 -9.8776137219 -15.263091839
48.889503201 39.4892062781 -21.434991839
13.761703201 37.5983062781 25.262508161
11.684303201 -34.4855937219 24.337808161
45.001803201 -12.1774937219 25.706508161
47.869503201 -10.3451937219 -16.198591839
44.274603201 11.8203062781 -16.034991839
43.073803201 -9.0898637219 29.434308161
17.616703201 14.8086062781 24.116408161
20.106803201 8.1019262781 28.042508161
-37.875496799 -8.3695137219 28.149608161
66.961403201 14.9383062781 68.620108161
31.156703201 13.1139062781 29.616608161
-39.894796799 12.8638062781 -19.740591839
65.440503201 35.3738062781 25.622008161
34.344703201 -33.3568937219 27.149208161
33.725503201 36.0911062781 -15.909891839
27.057803201 32.0273062781 72.105208161
35.583203201 42.8582062781 24.670408161
0.174187201 -6.9629137219 25.683908161
41.182303201 46.6823062781 23.780108161
39.089403201 16.2943062781 24.774808161
5.384823201 21.2346062781 24.762608161
35.701803201 -2.8252837219 22.689808161
77.164303201 41.9621062781 27.968308161
2.391793201 -26.1108937219 24.934008161
36.871003201 -54.2714937219 -18.790591839
35.699003201 -4.7896537219 27.174608161
-26.712496799 20.5387062781 26.509208161
38.159703201 19.5835062781 27.981008161
6.161113201 -51.7525937219 28.424708161
37.915703201 40.8617062781 72.893808161
6.015483201 -5.2227637219 25.007308161
0.762653201 21.8457062781 27.500808161
41.904503201 16.9575062781 23.680108161
12.076203201 20.2174062781 22.831408161
-19.461596799 42.7705062781 28.629108161
14.309503201 -7.6546637219 26.616008161
11.816203201 65.0970062781 -17.726791839
48.354903201 22.6683062781 -15.586991839
11.900403201 44.5822062781 26.786508161
16.742703201 -2.0141837219 25.209608161
10.982503201 19.1323062781 69.641508161
13.710403201 45.3578062781 24.323008161
47.247903201 -5.9582837219 23.318508161
9.199643201 -2.3973137219 23.673808161
50.668003201 -29.9417937219 23.517308161
45.358903201 40.1377062781 67.281708161
-23.237096799 23.2554062781 -18.883591839
44.215303201 45.1451062781 -18.512391839
15.829003201 21.2466062781 73.647708161
50.922703201 -52.0173937219 25.883808161
8.935373201 47.4417062781 27.079008161
43.011903201 -4.6185237219 24.409008161
13.116003201 44.1460062781 29.584008161
20.601203201 22.1950062781 24.362708161
52.517603201 21.8301062781 23.337608161
18.076403201 16.8575062781 25.353208161
18.014703201 -48.5345937219 -15.729791839
18.195603201 19.2512062781 22.643308161
59.980603201 -2.0174837219 24.983408161
24.326203201 45.5772062781 27.098808161
18.896903201 -4.1444737219 26.202508161
18.678503201 67.4740062781 28.832308161
23.083103201 -25.0039937219 24.468508161
58.182603201 42.2365062781 68.922108161
-13.949596799 45.3226062781 26.692608161
-12.715496799 -3.8263837219 -20.175691839
-12.014396799 -25.6731937219 28.763208161
32.691803201 -29.8239937219 23.834908161
29.005603201 22.2765062781 26.024208161
30.416503201 18.5814062781 23.117108161
-5.409666799 -7.5103837219 -21.358491839
32.196403201 16.8105062781 -18.475891839
-36.120896799 -1.1281987219 28.510208161
-2.465936799 19.4632062781 72.674108161
31.555403201 19.2763062781 25.351208161
-2.307216799 -2.3063237219 26.314308161
-0.911572799 44.2592062781 24.286308161
-7.403866799 -4.1465837219 -20.677991839
34.399503201 22.9315062781 -19.323891839
-0.047419799 -3.7110637219 -15.248591839
26.173503201 17.0872062781 -22.046491839
27.338203201 -1.1626457219 -16.184791839
-4.054806799 46.8498062781 -21.266891839
27.168003201 -0.3542487219 68.930408161
-0.678360799 -5.7449137219 27.905608161
27.777103201 -2.1352437219 66.962608161
35.158503201 51.0923062781 -8.724841839
4.929193201 0.0387012781 35.972008161
0.787183201 5.7264062781 36.856708161
3.542963201 4.4241962781 35.824608161
73.874103201 -16.4859937219 -8.744881839
2.483323201 -44.0844937219 33.609508161
40.362303201 6.6572562781 32.007208161
1.983843201 -64.1393937219 34.928608161
3.499163201 30.4460062781 -11.910491839
13.373603201 30.4266062781 -11.099091839
50.295603201 30.6337062781 36.115608161
8.689023201 28.9931062781 31.742808161
-18.561896799 25.6111062781 -14.762791839
9.180403201 55.1464062781 30.191908161
17.914903201 -22.9553937219 30.206908161
18.206903201 78.2393062781 34.690408161
-13.598596799 -22.4298937219 35.863908161
-14.008996799 23.9960062781 33.403608161
24.235803201 2.8277862781 35.487208161
-11.577196799 0.8632262781 -9.981041839
-14.497396799 52.7415062781 -7.804571839
23.475603201 1.3548662781 31.662708161
19.184703201 2.2366762781 -10.202541839
20.974503201 3.9231662781 78.955708161
32.542103201 3.5436762781 34.417508161
-0.622105799 -17.9149937219 34.548308161
31.337403201 31.2307062781 81.453208161
-6.301266799 24.0870062781 30.666108161
28.304203201 2.8552362781 33.515808161
-5.025026799 -22.6611937219 -9.663821839
26.651203201 23.8644062781 33.904508161
32.370803201 24.1079062781 -12.420391839
-2.226976799 25.1464062781 29.717308161
33.330203201 72.7535062781 35.359608161
26.706003201 2.5494762781 -7.643301839
3.440273201 -13.5542937219 -52.299091839
35.857203201 -15.1306937219 36.915108161
8.249313201 79.7840062781 32.438808161
68.921703201 13.5479062781 33.896908161
7.671523201 9.5461862781 29.704108161
2.805093201 -15.5101937219 -14.015591839
3.120543201 9.2877962781 -11.401491839
40.194103201 -13.5321937219 -8.727461839
-28.917796799 -11.2759937219 -10.342311839
5.533713201 -32.5565937219 33.553408161
39.815403201 10.0613062781 -55.915191839
1.811123201 61.6281062781 -12.509291839
6.894243201 12.1526062781 30.429208161
36.391703201 -11.9201937219 32.199308161
4.199513201 -10.5508937219 -12.837991839
2.683973201 -35.2714937219 35.023008161
39.664803201 -13.4938937219 -13.712091839
7.849973201 -35.9118937219 33.606608161
41.421203201 32.2874062781 34.593708161
9.237733201 35.5550062781 -13.070791839
16.765403201 59.7104062781 32.445408161
49.572003201 58.1101062781 31.978008161
43.887203201 85.4672062781 -55.243891839
11.342603201 -13.2764937219 31.791908161
-23.484196799 62.0591062781 31.435608161
12.019503201 36.1840062781 29.980108161
10.184703201 -35.8031937219 33.776308161
16.400503201 32.4007062781 34.119908161
-20.348196799 -8.6099037219 -12.987291839
25.626403201 36.7078062781 34.002308161
-16.641896799 -13.5019937219 35.369908161
23.724403201 38.1913062781 79.358808161
22.831003201 -11.9135937219 -10.749291839
21.043503201 10.9219062781 32.152308161
18.045903201 34.6063062781 30.472108161
53.293903201 11.0249062781 -11.024591839
19.216103201 14.5300062781 -10.689191839
-16.322396799 13.6067062781 -14.183991839
19.050703201 8.9117362781 31.713408161
20.375603201 8.0095262781 35.521608161
-4.210376799 60.6412062781 34.376108161
27.861803201 -10.0199737219 34.441708161
-1.949116799 15.0311062781 -14.165691839
66.270403201 59.2203062781 -8.308641839
-4.225226799 10.7874062781 34.804708161
32.347603201 37.0064062781 32.298308161
30.257403201 12.2566062781 76.113308161
33.863103201 -14.0550937219 35.785508161
-0.831964799 15.7996062781 32.658408161
-3.234646799 62.8543062781 34.900408161
35.942503201 -4.4982937219 33.484308161
37.984003201 16.0206062781 -12.499391839
-30.964196799 -2.6372037219 33.604808161
39.825203201 40.4613062781 -14.604291839
37.080903201 43.1530062781 74.727508161
38.696203201 19.0497062781 32.371008161
35.366903201 65.2305062781 29.816708161
1.769243201 -1.0581047219 31.625808161
3.484853201 -0.8729237219 74.260608161
3.618473201 18.4385062781 -9.288041839
6.555173201 41.2489062781 32.096708161
46.624003201 18.1128062781 29.869908161
12.895703201 -25.6224937219 34.660708161
-21.379496799 41.3659062781 35.954008161
43.306803201 -4.0662037219 -13.339591839
16.417103201 22.0509062781 33.243108161
15.884303201 19.3758062781 77.885008161
15.561503201 -6.3824637219 36.096108161
16.889103201 -52.3321937219 30.302808161
49.773603201 -49.0532937219 80.209908161
-20.677096799 21.1487062781 32.390708161
9.378653201 17.3491062781 30.358108161
-19.508096799 -3.9468537219 36.088008161
-20.062896799 17.7420062781 30.728308161
12.939103201 46.7480062781 75.327908161
49.925603201 -0.8450737219 31.046408161
-12.980296799 18.9122062781 -8.193581839
18.935303201 63.8285062781 -12.648591839
17.860303201 -1.6232537219 -8.278441839
57.269203201 46.3681062781 32.932708161
-13.293996799 17.8811062781 -13.619891839
-12.500396799 20.6401062781 33.971108161
-46.889996799 -0.2608318219 30.916008161
53.096003201 22.2282062781 -13.010291839
21.614303201 44.5388062781 -13.520791839
20.060203201 42.2642062781 33.310408161
18.268403201 43.7454062781 32.458308161
23.115803201 -25.0991937219 35.446108161
56.541103201 16.5259062781 35.130008161
54.869903201 21.1073062781 35.878308161
53.445903201 -51.6093937219 36.996808161
19.558903201 40.7007062781 81.308208161
-2.716416799 -4.8499237219 30.542708161
34.390503201 -7.4808937219 -9.435291839
29.886803201 19.0221062781 32.094308161
30.111803201 -24.9777937219 33.865508161
-4.428726799 -29.4691937219 34.559108161
26.062003201 21.1975062781 -9.972491839
-36.335996799 -1.6329637219 33.841008161
33.667603201 -26.6087937219 75.891908161
27.928003201 46.7827062781 35.692008161
-7.211756799 21.0710062781 -13.324791839
-2.321846799 19.4435062781 33.964808161
29.477803201 -1.5886237219 -14.551891839
-30.662196799 7.8057462781 -4.464141839
41.848903201 27.7571062781 -3.577081839
0.428247201 26.2308062781 -3.202761839
3.348823201 25.2026062781 -1.742731839
37.897803201 29.4458062781 41.459408161
4.801413201 -43.0743937219 39.565808161
2.051463201 -41.0853937219 -5.398531839
7.754553201 -41.1270937219 39.922408161
45.577603201 26.1624062781 43.996608161
-19.867696799 3.5184662781 -6.833251839
-23.168496799 25.1292062781 -2.414461839
50.821603201 2.5911062781 39.446808161
12.074503201 27.7943062781 41.848808161
22.012503201 -17.1284937219 37.896908161
-13.820796799 -20.6646937219 -2.274531839
-15.009296799 -39.9969937219 38.078408161
18.113303201 5.9224662781 -4.967461839
-15.845796799 54.4004062781 43.589108161
24.388203201 7.6749762781 -7.136671839
-10.335016799 53.6338062781 39.378308161
59.154803201 -19.8277937219 -1.825881839
22.566703201 3.8547962781 37.785108161
18.537603201 27.2499062781 -3.753961839
21.947103201 29.2389062781 43.119208161
-11.405296799 -21.5662937219 -0.954394839
-16.021096799 26.2393062781 -6.342551839
23.719003201 25.2769062781 37.825208161
54.607203201 49.5943062781 39.624008161
25.079603201 27.6170062781 -6.603831839
-14.653596799 28.6431062781 -0.459618039
21.704303201 1.1129662781 41.540008161
52.084503201 25.5366062781 86.541308161
-9.903706799 2.3776562781 40.579008161
21.122603201 -23.6446937219 -5.936061839
20.665403201 24.3276062781 44.149108161
28.112503201 25.7492062781 -0.512762139
63.143703201 24.5720062781 39.745508161
-38.914596799 -20.3722937219 -5.427821839
-1.543846799 -17.6391937219 42.787608161
26.027403201 -18.6347937219 40.305408161
-3.263516799 27.7892062781 -2.498461839
27.519603201 -18.9724937219 38.311008161
29.039003201 -22.4965937219 37.413808161
-1.739536799 -39.8032937219 39.001508161
-8.088756799 7.5762762781 39.047908161
-2.776016799 -19.1977937219 37.695408161
-4.315556799 1.9897562781 41.340508161
-34.974296799 5.4537162781 39.392108161
-6.902076799 26.9377062781 85.007708161
27.024403201 -16.8581937219 -2.543501839
-7.533316799 47.8269062781 38.039408161
36.407103201 33.7510062781 39.289108161
1.440143201 13.7356062781 -3.328411839
38.786403201 37.7147062781 -4.911101839
5.294163201 -35.8190937219 38.137008161
41.014003201 39.0093062781 38.422608161
40.449803201 31.7477062781 38.431708161
37.585903201 -34.2794937219 -7.394911839
0.242422201 15.0069062781 -5.761341839
40.715803201 -11.1201937219 43.019308161
8.755883201 11.1518062781 37.132308161
9.039633201 36.9016062781 44.184908161
22.761203201 32.0046062781 -3.875561839
-12.915296799 -37.0962937219 40.556508161
-12.797296799 -31.9914937219 -5.808181839
17.694803201 39.2941062781 39.925508161
21.930003201 -15.5907937219 -1.471371839
58.225603201 12.8752062781 -1.214394839
24.161703201 36.8604062781 41.006008161
24.691003201 34.3444062781 40.755308161
20.006903201 -13.1886937219 42.482108161
21.939403201 12.4024062781 -5.460381839
19.515203201 12.5399062781 44.304608161
24.751503201 -15.4430937219 -2.125061839
21.143703201 -11.3113937219 41.425708161
22.918203201 -31.8816937219 -0.599753839
56.435903201 -12.5473937219 -1.161517839
-12.036196799 -8.7152137219 86.081608161
31.981703201 34.9064062781 39.155408161
28.407103201 37.4986062781 37.711108161
-7.267136799 13.8615062781 85.947108161
-3.595346799 -9.2885837219 40.944508161
-5.504956799 -35.9763937219 39.559108161
30.927703201 12.3013062781 42.573508161
60.764703201 35.3797062781 -1.741151839
-5.019886799 81.3374062781 -2.175161839
28.518703201 8.5989162781 40.572608161
27.968603201 -9.3794037219 43.937108161
27.514903201 35.1995062781 -7.202691839
30.212103201 33.5121062781 38.479008161
26.840303201 9.3543462781 42.820608161
-30.690196799 39.7287062781 -1.284632839
39.239103201 39.9648062781 41.163008161
0.665773201 41.5431062781 -0.476971539
1.164643201 -1.0899377219 -0.499974339
2.724013201 -7.8710037219 37.870808161
36.529703201 -24.4261937219 -7.415361839
72.415803201 -3.5822137219 39.557808161
-20.124396799 19.9932062781 38.872708161
12.905803201 -2.4267137219 41.067808161
16.401303201 -24.0412937219 39.603008161
15.009403201 -0.6744457219 41.616508161
13.663203201 -54.6823937219 -4.260281839
14.302803201 23.4708062781 -6.844731839
15.399503201 20.0095062781 -3.162031839
-18.504096799 21.3158062781 -0.798018839
50.714903201 42.3532062781 -6.348691839
53.634303201 20.6130062781 -5.088511839
18.981803201 40.6362062781 -1.223069839
18.886803201 47.2589062781 38.918308161
21.872003201 22.6608062781 -3.445991839
-14.068896799 19.0637062781 -0.191217839
-16.951196799 -53.4367937219 -3.605261839
19.982003201 15.9981062781 -3.395631839
17.928003201 47.4681062781 44.392008161
17.452303201 45.4540062781 85.664408161
20.431103201 17.9111062781 38.900308161
56.283603201 20.3301062781 42.103508161
33.048403201 -24.3161937219 43.684008161
0.490893201 0.0737452781 51.276308161
76.110003201 1.1833462781 51.264708161
-27.655096799 29.4948062781 51.666008161
40.774603201 0.0226172781 47.516908161
39.342003201 3.5757562781 93.601808161
-27.357996799 -20.9250937219 51.544908161
36.042603201 71.7836062781 3.645978161
3.755143201 6.4366462781 -38.958291839
36.378803201 5.5382062781 5.394168161
5.466913201 52.8724062781 0.272933161
36.782103201 50.9410062781 92.460408161
4.128683201 7.4066862781 3.520758161
37.046603201 29.2770062781 91.422008161
4.590673201 6.7559162781 0.215742161
-30.992896799 -22.4216937219 89.478808161
4.062153201 28.1136062781 0.318750161
-63.619096799 -20.1326937219 2.913548161
1.552923201 73.4413062781 47.454108161
5.838573201 3.6788062781 44.702208161
8.109633201 48.8182062781 0.049724161
6.673303201 4.2393562781 48.168608161
38.908803201 49.8065062781 5.764558161
6.819813201 5.7607562781 48.178008161
3.292543201 76.2864062781 6.568058161
42.226503201 -20.7011937219 46.870408161
8.317983201 1.3097062781 49.076008161
41.536503201 47.5386062781 49.501908161
-33.020196799 51.4582062781 49.463108161
69.047403201 2.9180462781 50.247408161
7.054903201 6.8777462781 2.249778161
8.492413201 -20.8189937219 3.838298161
3.593783201 1.0836562781 6.515598161
39.068703201 -15.9029937219 46.096108161
13.323103201 -21.2577937219 44.905208161
10.965203201 3.2683662781 1.916508161
9.546443201 4.3309262781 6.473658161
43.122403201 29.6011062781 51.658508161
-54.347296799 0.3292742781 1.753998161
10.760203201 -18.8773937219 49.804808161
14.026803201 7.6246562781 51.631508161
9.719603201 -23.0729937219 45.446208161
48.514103201 3.3414162781 48.105108161
13.500603201 4.1906462781 6.294588161
10.678303201 25.0804062781 46.580308161
-19.178396799 0.2893122781 0.371693161
8.924963201 -17.0135937219 2.154348161
16.227403201 1.6425462781 -39.908291839
-21.175796799 2.5536762781 7.089588161
14.687303201 1.9367762781 48.534808161
44.087303201 27.3532062781 49.446508161
9.764403201 4.1912062781 1.295558161
10.150403201 5.6804162781 2.071948161
12.530503201 31.0674062781 50.066808161
50.941903201 -20.7214937219 2.397628161
81.683303201 -43.6926937219 1.579498161
15.172603201 4.9528962781 6.150498161
49.699203201 54.4075062781 6.480918161
12.294303201 -18.2419937219 5.296978161
-15.724396799 6.6763762781 51.820808161
23.172403201 -23.4606937219 5.378188161
23.626103201 1.3363062781 0.723998161
54.492203201 53.6674062781 6.742198161
18.240203201 27.7460062781 5.398098161
17.673703201 25.5450062781 1.862998161
18.363703201 4.7026262781 46.728308161
56.078303201 28.1796062781 93.938508161
-48.579196799 -64.1663937219 44.700408161
55.941703201 47.5946062781 5.743228161
24.118803201 24.7905062781 51.176108161
17.325003201 31.3021062781 6.838238161
-14.319196799 1.4019262781 6.399488161
19.059703201 26.1612062781 5.198368161
18.981003201 48.0170062781 51.878508161
24.047703201 -20.7572937219 0.395699161
-47.145796799 50.6537062781 46.578708161
20.165403201 3.6330562781 90.483508161
56.444103201 1.4729862781 1.529018161
17.719103201 -22.5673937219 4.247248161
-12.754896799 31.3619062781 45.501108161
19.354603201 1.8096562781 3.606118161
-0.126915799 26.4897062781 7.220708161
33.937703201 26.2507062781 -41.742391839
33.877303201 3.5179562781 -40.327291839
-8.598696799 -23.4738937219 6.604528161
-2.725436799 52.9252062781 50.512408161
4.935943201 15.2078062781 89.275908161
5.046343201 -8.0726337219 6.953078161
-28.332696799 8.6056862781 51.542208161
41.757103201 38.1095062781 3.695838161
2.299593201 36.6462062781 93.148408161
41.289603201 10.9329062781 -42.462391839
8.363233201 14.7493062781 0.874628161
4.275053201 -12.2520937219 5.468768161
5.597663201 -36.9492937219 50.174108161
39.102203201 10.1198062781 4.331898161
7.838683201 34.1397062781 0.419993161
6.643353201 38.9244062781 6.734458161
4.900163201 60.5670062781 50.296608161
3.140253201 13.1619062781 46.325808161
70.668303201 39.5667062781 47.992108161
3.757603201 15.7415062781 5.855948161
5.110873201 -10.2532937219 44.575108161
74.847903201 8.0152762781 47.681208161
-28.627296799 36.1398062781 -42.415391839
38.842803201 -14.1607937219 1.425758161
37.920303201 8.9278162781 48.636108161
41.183003201 37.2010062781 50.628808161
42.734603201 60.2946062781 50.733508161
37.123103201 -12.4555937219 51.031408161
6.845193201 -14.6120937219 49.954908161
50.966203201 15.7740062781 49.546908161
45.585003201 10.4921062781 6.280398161
43.264403201 34.8659062781 5.294248161
43.291203201 11.6856062781 3.516838161
8.625943201 33.0330062781 45.968408161
78.876203201 8.3439362781 49.000208161
43.166103201 9.2901262781 49.573108161
-24.616596799 -10.0179037219 46.243408161
79.882703201 34.5939062781 47.578808161
43.750303201 -13.7366937219 51.202808161
9.538713201 12.8105062781 4.821358161
45.524703201 35.8652062781 6.711508161
9.822403201 -10.1110437219 6.499638161
-22.872096799 8.4377862781 49.396808161
-23.295196799 36.9895062781 5.405788161
-19.758796799 -12.8487937219 7.019878161
24.169203201 -56.6427937219 47.610308161
17.854803201 14.5104062781 5.435648161
-14.387696799 -10.3668937219 3.096708161
18.657803201 57.7433062781 51.550608161
24.852203201 -12.3912937219 44.682808161
21.096403201 10.7112062781 6.065278161
-15.046696799 13.3816062781 4.743818161
-14.285296799 61.1974062781 1.359718161
20.078103201 10.5692062781 0.414823161
-11.590796799 -12.2491937219 49.036308161
-12.627796799 15.6469062781 1.478048161
19.519003201 14.9729062781 5.004638161
55.845103201 32.6528062781 46.513808161
55.593803201 -11.4132937219 -42.427991839
21.515003201 -12.8263937219 45.488108161
17.716103201 -34.7430937219 50.140208161
20.050903201 -11.5184937219 6.137568161
-15.032196799 -13.3840937219 47.750808161
21.892603201 -13.5997937219 4.687938161
23.583203201 15.1994062781 1.306878161
22.434603201 -58.2068937219 4.514458161
25.053803201 9.3046562781 51.151608161
-11.305196799 -8.9083537219 6.744678161
-15.103396799 38.5830062781 -37.845491839
25.426803201 37.3843062781 49.441508161
-14.373496799 9.9258062781 46.338108161
23.334503201 34.4260062781 0.680888161
21.140103201 15.6297062781 -40.094291839
-14.791396799 13.3710062781 7.363248161
25.491303201 56.8328062781 3.768428161
-9.557036799 58.6444062781 51.448608161
55.971603201 8.6230062781 48.217008161
25.150303201 14.6428062781 6.281818161
58.494603201 12.9415062781 3.900238161
20.423603201 9.7150862781 7.360538161
-10.759696799 8.1313962781 51.504508161
26.025903201 -33.1527937219 45.324608161
25.875103201 36.3684062781 0.510638161
-6.904136799 12.8632062781 90.475908161
-4.895896799 14.5459062781 1.128798161
27.900803201 -33.2012937219 46.845608161
26.787103201 9.8179062781 2.797158161
-2.110326799 -9.2246137219 0.255346161
-40.190096799 -12.0234937219 0.792498161
100.835003201 15.3035062781 3.466048161
-6.938746799 13.6779062781 49.147208161
61.458303201 -13.6543937219 49.122908161
-4.802016799 14.0102062781 6.161558161
28.881203201 -11.2937937219 6.786628161
28.941103201 107.7968062781 94.149108161
28.755103201 -32.7817937219 49.295008161
-2.925486799 14.3623062781 2.087848161
96.361903201 -8.3066637219 47.988208161
34.389203201 -8.5001737219 50.445408161
75.471303201 44.6639062781 3.668948161
36.111403201 -28.0174937219 51.124908161
37.592303201 23.5990062781 48.591508161
-31.642796799 19.9732062781 1.847868161
35.247403201 -3.0439537219 45.850508161
41.890903201 43.1526062781 3.977358161
4.401643201 18.9234062781 93.992508161
4.943543201 20.3333062781 48.192608161
39.233603201 -30.6814937219 0.810918161
5.517953201 39.6447062781 -39.133691839
2.101913201 21.2934062781 6.562528161
35.430803201 -3.3249937219 48.403508161
42.678503201 -2.0115137219 51.297608161
0.302469201 17.4257062781 6.737978161
7.694163201 -7.1184137219 47.500908161
8.042723201 23.5908062781 -43.221491839
35.376903201 -26.9302937219 5.512528161
71.681703201 -23.9240937219 1.009848161
0.815163201 16.4362062781 5.298058161
6.985443201 -29.0167937219 49.836508161
5.335633201 18.6139062781 6.275168161
2.781963201 -5.1877137219 5.596218161
36.843503201 16.7473062781 51.446708161
38.704703201 88.3326062781 91.335908161
36.238303201 44.9567062781 2.549588161
7.922883201 15.9871062781 51.362608161
-28.341096799 46.3394062781 4.293068161
34.618703201 -30.2341937219 3.079838161
41.424903201 22.2381062781 47.239308161
36.465703201 23.2410062781 6.247608161
37.066403201 40.4267062781 5.122598161
8.649593201 -25.1540937219 2.227718161
16.594803201 -0.4896057219 48.355208161
11.896003201 -1.8802137219 44.581808161
12.278803201 22.4297062781 48.514408161
9.701403201 -25.9959937219 50.610308161
49.452403201 -24.4290937219 47.802508161
-17.721996799 44.5619062781 1.116838161
-17.540496799 20.3990062781 3.314988161
48.136303201 46.5007062781 4.983788161
51.192303201 -6.5019237219 6.280138161
12.298903201 23.6592062781 49.889908161
47.624603201 23.2537062781 47.041308161
79.946203201 -0.9264027219 51.011708161
46.648503201 20.5462062781 96.352208161
16.415203201 22.0418062781 51.428608161
47.625303201 -0.9101657219 6.687658161
55.982303201 23.3947062781 1.671898161
24.439303201 -1.1081287219 49.319308161
20.673003201 -48.8188937219 4.796738161
19.632503201 21.5001062781 6.781978161
18.625203201 -26.7037937219 48.556308161
54.189403201 19.8595062781 -41.432091839
-10.976796799 20.3556062781 51.238508161
-10.262356799 64.9489062781 46.790008161
17.362803201 -6.3129437219 49.054108161
59.801403201 19.3420062781 48.291008161
19.161803201 17.3654062781 45.384108161
25.268003201 43.7925062781 2.187748161
52.607303201 18.4560062781 5.669048161
18.123903201 -79.0820937219 3.716998161
-9.930456799 -31.0460937219 -44.036691839
25.548203201 -30.9117937219 6.908848161
22.679503201 19.6326062781 49.380508161
24.790403201 41.3400062781 48.355008161
22.913803201 -1.4587337219 1.395238161
21.106603201 42.8629062781 46.736208161
24.022403201 44.0772062781 48.467208161
58.884003201 18.9213062781 1.130048161
55.859803201 -4.8511237219 3.961488161
20.100203201 20.1823062781 1.340258161
17.927903201 -1.4792037219 4.023808161
-9.433146799 15.9439062781 3.943698161
-13.731296799 -6.3601437219 1.636818161
18.271303201 -24.9746937219 -37.836291839
-15.428296799 21.9669062781 49.724908161
58.462803201 16.8808062781 5.019668161
25.182503201 -3.5445737219 7.396478161
26.707703201 45.5733062781 44.741708161
25.830003201 -1.2395997219 5.489638161
67.780503201 -6.1519337219 45.649608161
27.104603201 16.7922062781 -38.030591839
27.632803201 18.5820062781 5.744228161
33.451603201 -48.3988937219 47.490508161
33.821603201 21.0722062781 46.726508161
-3.225886799 -3.7418537219 2.070538161
-4.539876799 19.1214062781 5.741748161
-2.936276799 -3.1420437219 48.220508161
-1.954746799 46.6007062781 46.155108161
-7.793606799 -4.0215837219 50.998308161
99.120303201 -29.9151937219 6.302868161
31.825203201 69.8680062781 3.281058161
-6.561436799 20.8241062781 45.628408161
-3.026346799 -30.4997937219 47.853908161
-1.064924799 18.3043062781 51.145008161
-6.069116799 -2.3076337219 51.710108161
-2.912476799 17.8742062781 5.015898161
33.025503201 -2.0768937219 6.514908161
-1.566776799 43.9108062781 6.585768161
-2.679116799 40.6230062781 6.916838161
-35.692196799 19.3495062781 5.200698161
33.647303201 -1.8650537219 89.710808161
5.750953201 26.4898062781 52.708908161
4.204093201 25.9606062781 52.388508161
-31.232496799 27.1239062781 10.417008161
37.781003201 5.2047262781 11.087208161
-28.277696799 77.8640062781 11.531508161
5.845863201 29.8870062781 54.517408161
5.751493201 5.0318862781 56.937608161
36.385903201 51.5143062781 56.314308161
6.537353201 6.2900362781 13.319408161
37.839203201 23.9993062781 54.710408161
38.437003201 -22.4629937219 11.677908161
-33.030696799 50.4037062781 13.201608161
39.746203201 25.6278062781 13.036908161
35.027703201 6.7383362781 57.569808161
6.208663201 1.0176762781 9.977408161
42.363903201 29.9161062781 -33.167691839
7.653023201 3.3501162781 14.245108161
37.285703201 31.4773062781 8.373008161
5.863053201 28.9981062781 53.240808161
36.004603201 25.2102062781 -29.817991839
34.862403201 4.6341362781 100.062508161
-29.393496799 -40.1612937219 13.063108161
5.660123201 -21.1124937219 11.596608161
-66.548096799 30.8493062781 13.336408161
3.364273201 -16.8117937219 10.945208161
7.389173201 6.8284462781 14.632808161
41.911803201 28.7301062781 58.513508161
0.333751201 0.8601462781 10.673608161
2.477153201 6.6176462781 53.946708161
-32.052496799 25.9838062781 8.897278161
42.534203201 3.6211362781 10.130708161
41.426003201 -45.0008937219 -33.944491839
69.392703201 6.1992962781 54.185608161
38.663503201 -21.8762937219 103.105508161
14.676003201 25.0344062781 11.537208161
16.150803201 24.3927062781 57.132108161
-24.590296799 49.2663062781 -36.429291839
-19.355996799 -19.1930937219 11.647208161
10.693703201 -18.5402937219 11.868508161
46.588403201 28.1327062781 -33.414091839
9.753603201 -16.8261937219 7.725718161
15.238903201 28.0719062781 13.420408161
-19.898896799 74.0580062781 11.501308161
79.455103201 72.1989062781 -76.739891839
43.829903201 -47.2220937219 53.486508161
11.343603201 3.8460262781 12.403408161
-25.766596799 7.3932862781 56.461408161
13.639303201 26.1406062781 58.877108161
8.976053201 54.9395062781 14.721908161
14.155503201 7.4169362781 -35.297391839
47.514103201 -21.9747937219 9.976908161
12.230403201 3.3200362781 54.012308161
9.295363201 50.7856062781 8.706528161
47.800903201 51.6084062781 -36.444391839
9.998603201 30.2321062781 10.921808161
47.822503201 53.1934062781 11.458408161
45.233103201 -16.6112937219 9.313588161
15.265003201 -20.7022937219 14.312308161
79.880503201 -21.1115937219 53.169608161
15.170303201 25.4529062781 52.128908161
43.288003201 -18.9209937219 11.402408161
10.775303201 2.5725762781 57.680508161
46.502703201 31.4837062781 13.705708161
15.341503201 -16.9496937219 14.181108161
16.420503201 -42.2771937219 9.441528161
48.892803201 6.7833362781 12.835108161
12.246603201 31.4219062781 54.221608161
46.558603201 -23.6898937219 12.157508161
21.636403201 -19.6772937219 58.034408161
-15.974696799 -41.1333937219 57.848408161
22.078003201 51.7274062781 7.621238161
57.326603201 3.8642962781 54.253608161
52.323503201 76.2833062781 59.215608161
23.221703201 30.4354062781 55.532608161
-43.196896799 -18.5625937219 56.681608161
17.733303201 1.3036262781 8.087488161
19.437103201 52.2733062781 10.101108161
23.518203201 0.8762862781 55.707108161
86.219603201 54.5900062781 10.745108161
-12.894796799 30.3301062781 10.750408161
22.706403201 26.5924062781 8.331878161
22.508003201 -18.8094937219 10.814208161
23.726503201 -16.4545937219 58.411908161
25.123603201 -17.7206937219 13.634308161
53.360303201 25.5721062781 13.778008161
52.195203201 5.0756862781 55.457708161
-9.141966799 27.1418062781 11.958608161
58.492703201 7.4145562781 9.675808161
18.616003201 55.1986062781 12.650508161
-10.290686799 26.6113062781 10.889208161
55.024803201 29.5664062781 9.618608161
51.835203201 27.3930062781 11.878508161
52.249803201 26.3901062781 9.086868161
52.245903201 49.8622062781 10.793608161
23.044403201 -20.1086937219 13.677508161
20.738603201 29.2276062781 -36.523191839
-12.516696799 0.5942772781 10.465908161
24.132803201 26.2690062781 59.219308161
55.461103201 1.9302062781 -34.613991839
20.086503201 3.3912162781 57.656008161
22.707703201 49.4307062781 58.057008161
-14.915396799 53.2404062781 14.641808161
33.514403201 25.9182062781 10.191408161
-5.642996799 -17.5185937219 10.779808161
32.543003201 30.9778062781 9.130428161
30.040503201 3.1835162781 10.769908161
28.017203201 31.2153062781 14.520708161
33.111503201 0.2998162781 57.740208161
29.736303201 47.6543062781 13.763908161
66.876103201 -17.8286937219 7.970968161
33.111003201 28.4265062781 59.350808161
31.768403201 1.9646262781 -33.664291839
-4.453396799 -19.0788937219 10.491308161
-7.904156799 51.8762062781 10.947008161
29.532203201 4.8365862781 13.626808161
27.274203201 -20.5901937219 14.168408161
-6.393936799 -21.5371937219 -31.691691839
-38.939996799 7.5843062781 11.645908161
32.524103201 4.2345862781 13.085608161
-3.150996799 28.7693062781 14.246508161
-2.900986799 0.8409962781 13.592408161
-41.970996799 -39.8432937219 57.572808161
-36.216096799 30.4044062781 55.532108161
25.855003201 53.1046062781 7.853778161
26.226703201 25.9979062781 13.003008161
-37.064496799 24.3090062781 56.487008161
31.328403201 7.0707662781 58.290308161
-0.766991799 3.8958962781 -34.339491839
61.324203201 2.7177062781 100.564508161
29.188603201 -20.4967937219 -30.777791839
28.134003201 7.4215262781 53.089708161
-41.519096799 29.5560062781 11.319608161
38.934103201 -39.0534937219 53.188908161
4.402683201 -13.5945937219 12.128708161
6.650063201 -33.5351937219 14.596508161
42.555203201 36.4733062781 14.395108161
2.963093201 33.8835062781 13.353908161
3.461563201 -10.4139937219 12.434508161
2.761473201 35.6959062781 58.273008161
37.152003201 11.9304062781 -36.234891839
41.127103201 10.1758062781 13.813808161
5.097683201 -9.8621837219 11.984508161
6.659613201 -12.8139937219 8.722148161
2.740153201 55.9090062781 -34.520991839
71.243903201 56.2418062781 13.876108161
7.112613201 -13.9311937219 -34.609591839
-26.355896799 39.2649062781 56.659308161
75.098103201 32.9519062781 53.161908161
7.013713201 -11.2078937219 51.973208161
37.523103201 11.3785062781 56.460808161
-31.831296799 -9.1275637219 11.562308161
5.929433201 12.6772062781 53.967508161
38.701903201 -11.4636937219 8.924888161
3.225013201 37.5443062781 52.784408161
36.574803201 38.6191062781 9.657008161
40.549103201 -13.1463937219 56.825008161
-28.986296799 -14.8048937219 12.629308161
7.405333201 13.0988062781 -35.527291839
5.150953201 -8.1302037219 11.642208161
47.944003201 -11.0221937219 52.016008161
17.155903201 9.2829162781 7.900768161
43.755203201 31.9039062781 98.091008161
12.142203201 15.3547062781 97.919008161
9.869703201 13.4115062781 14.463908161
13.506103201 14.4338062781 52.196708161
14.542603201 9.0352862781 12.486208161
9.257183201 10.4808062781 11.128908161
48.310203201 38.5778062781 9.083208161
48.672503201 32.9784062781 7.937528161
43.112703201 8.3141962781 -31.086191839
-25.584196799 -33.7550937219 9.675108161
11.611503201 -37.2953937219 9.505688161
14.822703201 14.9224062781 10.862308161
15.874003201 34.7173062781 57.744208161
46.173503201 -14.6758937219 57.211008161
51.162803201 -36.0502937219 10.119208161
80.407803201 -12.8974937219 14.586508161
78.816703201 35.3368062781 59.181608161
-21.590396799 -32.7452937219 57.180308161
11.912503201 60.1395062781 99.512408161
14.903803201 -11.2160937219 12.693508161
9.593433201 -35.3343937219 11.236208161
16.769403201 15.7107062781 53.519208161
11.975203201 13.9206062781 56.189308161
43.219703201 -10.8201937219 57.430908161
10.799203201 -33.6038937219 10.329708161
15.857103201 10.4261062781 8.177488161
-18.705196799 -37.0942937219 11.613508161
16.563603201 61.4220062781 7.964578161
47.916703201 12.6712062781 55.671108161
-23.423396799 11.2173062781 -33.876091839
10.514903201 38.6612062781 9.067878161
16.404303201 13.3009062781 12.527008161
81.764103201 32.9091062781 54.069208161
25.681403201 12.9488062781 53.209408161
22.132903201 33.7809062781 14.241908161
58.093403201 59.6783062781 52.296408161
-12.366096799 -14.6917937219 7.944128161
54.175803201 80.5930062781 57.262108161
18.043903201 -34.9297937219 57.463808161
-10.603396799 35.0371062781 11.558408161
18.276103201 9.2651662781 13.580808161
22.315903201 -13.3463937219 55.791008161
24.501703201 -37.1979937219 52.725308161
52.935103201 10.7777062781 9.973308161
-47.940696799 -11.6920937219 56.183808161
53.878103201 33.9353062781 14.593708161
23.759003201 -14.8825937219 53.145008161
18.290603201 7.9950862781 53.742908161
51.748803201 37.5694062781 58.296208161
21.516903201 10.6126062781 12.693508161
20.968603201 9.2256062781 11.476908161
24.070703201 -9.8640037219 58.429808161
59.231003201 34.1498062781 13.809108161
24.695703201 -9.0110037219 53.868808161
21.207703201 12.2393062781 10.004408161
-9.758456799 38.4941062781 57.019108161
-45.044196799 12.9448062781 11.492208161
86.528103201 34.9008062781 8.554738161
25.353503201 34.4753062781 12.063708161
-7.121416799 36.7069062781 7.979808161
29.225603201 33.3424062781 12.114308161
28.725903201 -33.4103937219 7.950728161
26.455203201 36.6493062781 11.137308161
-7.965366799 15.1312062781 54.706508161
29.407303201 -32.8671937219 11.537408161
-6.589466799 -13.5723937219 54.423308161
29.235303201 8.6701262781 -30.143591839
60.581703201 9.2115362781 12.500708161
-7.584636799 -35.0231937219 54.168008161
29.467103201 -10.6901937219 14.147708161
-3.373926799 32.3317062781 -30.210591839
-7.269856799 -38.9313937219 9.174178161
27.964103201 36.0149062781 58.624208161
29.897803201 13.9069062781 10.040608161
-5.460396799 33.7179062781 53.130508161
27.162603201 15.1441062781 57.846008161
60.691403201 -8.6177437219 -29.794491839
28.018603201 37.8571062781 -30.098691839
61.672103201 59.2212062781 56.990208161
-6.659566799 33.8808062781 11.592908161
26.424803201 14.4508062781 56.404808161
-4.262786799 10.0265062781 13.772908161
-29.094896799 23.4764062781 56.691808161
36.067703201 -24.7053937219 13.281608161
0.001836201 -4.0405337219 10.045308161
7.934233201 21.9054062781 11.261908161
0.443408201 19.4783062781 13.199108161
37.975403201 -3.3979437219 -29.756691839
5.950863201 40.8277062781 14.698808161
-33.139596799 22.3989062781 -36.902491839
36.577203201 -31.0887937219 58.801908161
-33.367396799 -4.6523737219 11.326608161
5.275133201 -49.6937937219 7.435588161
1.550143201 -7.5934637219 12.696108161
2.834573201 -49.4459937219 13.705408161
40.430303201 45.1789062781 8.855148161
7.708703201 -4.3023537219 12.323508161
39.477803201 16.3789062781 54.561308161
1.815793201 -26.7712937219 10.447508161
39.649903201 21.9881062781 13.484008161
42.226203201 17.8424062781 52.472108161
40.911603201 42.2002062781 53.538208161
4.933353201 18.3441062781 52.533108161
6.291663201 89.6910062781 12.916308161
-30.957596799 43.7798062781 10.334708161
4.881453201 68.3096062781 10.160208161
1.407333201 -7.2210137219 -35.000591839
70.093103201 -6.3148637219 52.635308161
3.503013201 18.6702062781 56.420508161
-33.217296799 -53.7863937219 11.310508161
38.037403201 19.3839062781 -36.001391839
3.841983201 43.0276062781 13.644308161
42.753203201 23.1669062781 14.430508161
34.767103201 -5.3546737219 -29.988991839
35.034303201 45.3178062781 54.046608161
0.859303201 21.4218062781 58.569908161
-18.975696799 -0.3457887219 52.026408161
45.207303201 45.0724062781 7.567248161
12.201403201 18.7526062781 -37.097091839
49.408103201 18.8690062781 54.479408161
10.382903201 21.1715062781 9.455028161
9.962903201 -24.7230937219 -34.590091839
-19.840096799 40.7017062781 13.284708161
45.496703201 -2.8192137219 56.692008161
48.457003201 -29.8141937219 -35.079791839
43.626403201 -3.2454937219 7.579298161
-17.941296799 -2.7978337219 52.846208161
44.251003201 41.2841062781 8.519048161
8.840603201 -30.9629937219 55.529508161
77.651803201 -4.9908337219 10.982008161
45.327003201 19.9760062781 58.247508161
-18.662496799 21.1203062781 11.544508161
47.369303201 22.4628062781 13.645808161
11.542103201 18.8159062781 57.086408161
9.123503201 -27.5643937219 59.079608161
82.949803201 -5.4827837219 7.818228161
15.447903201 22.2622062781 54.763908161
-22.863096799 -6.7861637219 -31.503691839
48.343803201 16.0281062781 -32.794191839
9.671403201 -6.2582837219 54.769108161
13.081503201 -7.5218137219 57.916008161
43.028603201 45.3248062781 14.286708161
-24.989996799 21.4848062781 10.708608161
-22.343896799 68.3928062781 10.437708161
-20.767896799 21.4474062781 10.467008161
14.336303201 67.4239062781 11.276308161
15.034003201 -3.2643437219 14.707508161
47.053003201 22.0526062781 11.938508161
-24.651896799 -7.6838937219 57.491408161
53.944503201 43.5735062781 7.804638161
25.254303201 21.6741062781 -35.908391839
22.515503201 21.5718062781 7.514998161
25.538603201 -23.9455937219 57.890708161
23.762503201 -1.2952637219 53.270308161
27.773103201 -28.8284937219 14.164808161
31.626803201 20.5906062781 -31.727291839
-40.638996799 -4.5913437219 8.867028161
27.563903201 18.4493062781 -31.921491839
26.176903201 -5.4301837219 11.491508161
-2.352106799 41.3597062781 12.517908161
-5.344426799 17.4629062781 55.247108161
-5.502656799 17.4647062781 53.495608161
31.326703201 -5.4403737219 11.022908161
-3.945206799 17.4773062781 8.045588161
31.328703201 -6.6463837219 9.842108161
-37.435696799 21.0176062781 53.803408161
-37.300696799 46.1931062781 8.683308161
67.656403201 -26.3991937219 12.756308161
34.106403201 -24.8509937219 13.317208161
-5.556856799 43.5291062781 7.464968161
28.985203201 17.6441062781 -32.046691839
33.537703201 -2.5680437219 -29.951091839
31.197803201 -27.4890937219 10.858208161
-1.442176799 -6.1016837219 54.884108161
-36.012696799 23.6947062781 8.826068161
27.980103201 21.8790062781 14.764708161
62.524703201 22.0088062781 10.052808161
29.962203201 47.1780062781 12.100408161
-7.743016799 -6.5989337219 54.575908161
-0.217226799 23.0238062781 54.079208161
-5.518966799 20.9879062781 55.916908161
-7.502966799 -27.5883937219 56.152508161
-27.281896799 4.1680862781 16.018308161
37.834703201 29.0291062781 -29.608391839
0.627802201 0.4611232781 18.685108161
5.067783201 -15.8604937219 21.715208161
73.697803201 3.8180262781 21.661108161
-27.508196799 29.1971062781 22.085508161
37.736603201 -16.3228937219 16.690508161
107.694003201 7.8732962781 62.751708161
6.730413201 -16.5446937219 16.439908161
41.132303201 2.0532362781 -29.324091839
-26.523496799 31.2752062781 19.879708161
-63.832196799 7.1718362781 16.382308161
0.811763201 54.4654062781 20.090508161
69.258903201 30.4493062781 16.291708161
42.234903201 24.6033062781 60.032208161
42.814403201 0.9082962781 -27.367591839
7.051833201 24.5619062781 21.241508161
3.771483201 51.2445062781 16.811008161
6.160553201 0.9901262781 19.715608161
1.514753201 6.1443362781 17.363708161
6.009503201 25.6528062781 18.100608161
39.915903201 74.9860062781 17.426408161
2.199663201 4.3521862781 16.391708161
36.398703201 5.6618862781 20.470308161
41.249803201 25.3049062781 61.335608161
35.760303201 49.6196062781 -23.117991839
3.371663201 24.5225062781 59.722808161
-33.545996799 24.2230062781 65.285908161
4.234393201 1.1458562781 19.708808161
8.580003201 -20.1719937219 -25.131191839
4.529893201 31.1403062781 64.668408161
-34.224696799 -22.7110937219 15.233608161
40.190103201 28.4969062781 18.909008161
2.504523201 4.1571062781 19.733708161
1.555733201 -17.9526937219 18.895808161
3.684353201 25.2499062781 18.191508161
10.253903201 28.5478062781 15.528608161
46.160103201 -16.2348937219 19.003208161
14.761303201 51.1802062781 17.198308161
17.007703201 50.0840062781 16.481908161
15.522803201 3.1289462781 18.749808161
48.679203201 5.6046462781 -27.226291839
46.093003201 26.2813062781 61.502908161
9.527833201 24.2552062781 60.392408161
13.047503201 -17.6833937219 -25.852391839
15.814703201 -18.8694937219 62.760308161
-25.239896799 -17.5499937219 17.591308161
44.348403201 4.7027062781 63.375708161
-17.222796799 50.9476062781 62.562408161
-17.600396799 -69.4686937219 -26.555891839
79.781103201 50.9749062781 18.304608161
81.986403201 7.8968562781 59.567208161
79.932503201 1.2681062781 21.406208161
45.278203201 -22.4573937219 60.215008161
44.951703201 24.3780062781 19.475008161
45.631203201 -39.9368937219 20.626308161
12.350903201 5.0051762781 -29.215191839
44.068303201 52.1862062781 20.501508161
12.514103201 48.8774062781 60.479808161
-21.628196799 3.4651062781 19.406308161
45.126303201 51.1527062781 21.712808161
13.667403201 48.6343062781 62.020708161
48.449003201 -44.9807937219 18.177408161
10.199103201 7.4293562781 -27.112591839
-47.798596799 3.9594162781 66.283808161
54.819403201 31.0253062781 22.055808161
58.697303201 54.2572062781 15.368908161
59.946103201 -18.8188937219 -24.679491839
-11.125596799 48.4817062781 14.864208161
-9.259066799 26.4248062781 20.140308161
56.876403201 28.8292062781 -22.426391839
25.302703201 54.9616062781 16.480308161
86.050403201 -16.3393937219 17.096808161
23.671803201 54.8958062781 -27.729691839
23.469003201 1.2649462781 19.658408161
20.524303201 30.4121062781 18.955608161
-48.288996799 -18.5970937219 63.389308161
52.230703201 5.0856062781 -26.444191839
-51.084596799 5.7626362781 16.165508161
24.807503201 24.0403062781 64.708408161
20.376703201 30.5992062781 16.083408161
-10.242236799 4.2152662781 64.978408161
24.338303201 3.7670962781 15.899208161
18.983603201 2.4091762781 20.395208161
52.074403201 2.9615062781 14.995408161
-11.379396799 5.7343362781 18.037808161
20.569903201 3.7895362781 17.557508161
-11.016396799 4.3611862781 61.582908161
-12.469496799 24.8887062781 -24.818691839
20.820403201 2.3295562781 20.242608161
20.995703201 27.6700062781 19.949408161
-13.202796799 0.8303962781 16.668408161
-13.377296799 -18.4248937219 17.069608161
-12.480896799 54.2553062781 21.460008161
20.142503201 49.8604062781 16.880708161
18.904203201 -17.8678937219 19.346908161
-10.322426799 28.4493062781 18.986608161
-2.462726799 0.9001762781 21.458108161
-8.124566799 2.6486962781 66.082508161
29.266303201 77.1398062781 16.624608161
32.896803201 3.4541462781 20.587608161
-1.333268799 3.6278862781 15.984608161
-1.109811799 30.7091062781 19.364108161
32.815703201 24.7998062781 -29.517791839
28.995903201 5.0641862781 17.863008161
64.836803201 5.3910462781 19.988708161
-3.923786799 24.5443062781 -23.827091839
-8.309296799 53.0154062781 -23.062691839
29.545003201 27.7675062781 19.220708161
32.565903201 -20.1316937219 63.329908161
-2.668886799 -23.0188937219 18.015008161
29.793703201 4.0158462781 -23.645191839
-0.516214799 -20.6238937219 17.261108161
31.741303201 4.7963662781 16.023708161
-5.996736799 29.5805062781 59.571908161
31.838103201 54.1218062781 -27.620691839
-4.342046799 -21.8324937219 16.371008161
94.731603201 -67.0548937219 16.374208161
-4.029536799 54.9928062781 17.448008161
27.178503201 28.4004062781 15.155408161
31.513203201 0.8229762781 16.289008161
31.801703201 28.3204062781 21.815408161
-6.665466799 47.7914062781 18.172708161
-6.839176799 6.0002462781 22.093908161
27.102803201 50.4735062781 60.764508161
-5.319386799 23.8227062781 19.337908161
-7.954986799 52.6104062781 62.896308161
-2.101326799 28.9035062781 19.559808161
26.392903201 6.6428262781 -27.098191839
-7.712106799 1.3933162781 17.130508161
8.083943201 -10.6744937219 21.108308161
69.931803201 15.5689062781 65.025908161
36.272203201 38.1757062781 -26.875691839
40.611003201 34.4178062781 -24.206091839
1.788603201 -32.3205937219 15.971808161
3.042043201 15.1355062781 65.362308161
38.035203201 13.1820062781 -22.935791839
41.432503201 -12.0346937219 21.417908161
4.034393201 -14.8548937219 15.595108161
38.804603201 59.3651062781 15.345808161
35.229403201 -11.1591937219 -26.635891839
-31.646396799 -11.0395937219 17.858208161
75.877503201 10.2885062781 63.221308161
-30.972596799 11.7348062781 61.271308161
41.596503201 -8.0845937219 59.783708161
37.977703201 -8.9029537219 15.217108161
35.110703201 61.2115062781 15.257808161
70.965603201 -8.4050037219 19.032408161
-30.511796799 80.2942062781 19.491308161
38.824503201 34.2037062781 64.815008161
2.015323201 -11.8092937219 19.282708161
0.442690201 11.9928062781 16.315908161
0.939233201 -110.1541937219 20.883708161
36.301203201 15.0198062781 66.639908161
7.587533201 34.6510062781 17.167108161
72.403203201 106.9898062781 20.205608161
3.133033201 57.9798062781 63.996508161
-29.423996799 -9.0986337219 18.260708161
0.967273201 33.7567062781 16.461608161
-26.836796799 -32.9625937219 20.310708161
34.476303201 34.4512062781 14.993708161
4.556133201 57.9283062781 16.157408161
43.397703201 38.7576062781 17.841008161
9.944203201 8.7982862781 16.456208161
-24.949396799 7.9274562781 65.691908161
46.306603201 -12.0802937219 -25.030591839
47.999803201 -11.6175937219 19.461308161
16.616503201 80.0816062781 16.647108161
45.821903201 -14.8218937219 18.017608161
13.494603201 37.4146062781 59.831408161
43.188803201 -11.9241937219 22.080608161
13.654203201 -32.6108937219 19.291308161
46.696003201 36.5335062781 20.652008161
10.677103201 9.2069462781 20.967008161
14.343303201 -10.1204837219 63.122708161
13.044303201 11.5576062781 14.978308161
-23.331696799 -13.5290937219 -25.105791839
13.748603201 38.4968062781 -26.977591839
-23.603896799 35.9953062781 62.704108161
44.190503201 -13.2465937219 16.111508161
43.337603201 61.3620062781 19.511108161
49.802503201 -10.4117937219 21.503808161
9.026893201 -10.7828937219 17.864708161
-20.083596799 -12.9906937219 -28.357191839
46.711803201 14.2857062781 60.897708161
-19.289796799 33.2074062781 17.052408161
16.109703201 10.7835062781 16.148808161
13.748403201 -62.2756937219 16.011608161
48.315803201 13.5459062781 64.867208161
-17.433596799 -11.3531937219 -73.088891839
58.998303201 79.1831062781 64.919408161
17.760503201 32.3288062781 18.086508161
24.315703201 36.5804062781 15.095108161
57.079603201 13.8969062781 15.241108161
22.795803201 -31.9692937219 60.472808161
25.515603201 15.4160062781 62.874708161
19.728603201 13.6694062781 15.200908161
18.377803201 12.7213062781 -29.683291839
32.295803201 36.4256062781 -29.067091839
30.617103201 12.8792062781 15.966208161
62.882403201 -15.1602937219 60.632108161
-1.008678799 13.9424062781 15.180108161
27.156803201 -8.4875037219 22.146608161
27.310603201 37.9670062781 60.667108161
33.135503201 33.5444062781 18.675108161
-1.323842799 39.1224062781 -24.516791839
-1.956506799 -13.8715937219 16.925708161
99.854003201 13.9842062781 63.161308161
33.682203201 -58.5351937219 21.518508161
-6.189576799 15.5453062781 -27.200591839
30.819703201 -13.1363937219 17.136508161
-0.549880799 33.2999062781 20.459908161
-37.184796799 -11.3703937219 63.841608161
64.240903201 37.3680062781 17.558308161
26.909403201 38.2720062781 17.526708161
32.468903201 14.8238062781 62.796308161
31.714503201 32.1631062781 16.301308161
32.639003201 -15.2692937219 19.760008161
64.770003201 15.7260062781 21.069308161
-7.766286799 12.6836062781 17.174708161
0.767453201 23.1293062781 17.575908161
7.521883201 41.7264062781 20.554208161
6.005913201 -4.6707737219 -28.395891839
69.318503201 22.6332062781 21.438808161
4.681893201 16.1428062781 65.512908161
3.725763201 -5.7702437219 17.638808161
42.362203201 43.5705062781 20.722308161
-28.382296799 39.6925062781 17.602808161
35.081403201 -7.5678637219 17.429908161
39.675203201 23.6351062781 16.521608161
5.594893201 -3.2284137219 15.546708161
-29.069796799 41.4249062781 63.996608161
7.695873201 71.0740062781 64.459408161
-30.561196799 -52.7854937219 20.464408161
39.609503201 17.4374062781 16.595408161
39.486803201 22.0963062781 17.045708161
3.795303201 -1.5650837219 20.069708161
-26.881696799 45.7900062781 19.272008161
36.680403201 18.8021062781 17.585208161
-29.810696799 -26.3640937219 65.977008161
37.366203201 21.3428062781 18.816508161
7.116483201 92.4240062781 -71.086091839
40.059303201 -3.4927437219 61.829808161
35.567103201 -6.0870937219 17.972708161
34.899903201 21.1740062781 19.894708161
0.110829201 -7.1544437219 -25.147791839
39.564603201 18.7212062781 -26.437191839
36.117103201 -25.6994937219 16.244808161
0.859803201 -27.9100937219 65.659108161
7.790273201 40.2661062781 -23.585391839
-27.260196799 -6.3356137219 18.557308161
8.735253201 15.9572062781 60.528808161
-25.704396799 20.7386062781 19.164408161
46.731803201 -4.5577037219 16.751608161
49.028703201 39.8795062781 -27.574091839
11.645703201 15.8431062781 61.068008161
8.638113201 -28.9981937219 15.335408161
14.180403201 16.0298062781 -24.187291839
10.981303201 21.7014062781 15.881608161
-18.249296799 -7.3237937219 -24.254291839
51.239803201 43.3915062781 18.678608161
10.548103201 17.5909062781 19.808608161
12.498403201 -3.9032037219 19.600708161
46.614103201 21.6270062781 20.253708161
14.959403201 -3.4904537219 21.232408161
46.607303201 -49.0243937219 17.095208161
12.091103201 18.1496062781 20.288808161
-18.826396799 -0.3493867219 60.029308161
12.629403201 -3.2262437219 106.929508161
-19.004296799 17.6637062781 -27.371291839
45.645003201 -24.3607937219 62.722708161
-22.444796799 17.4560062781 -27.702391839
85.411903201 20.5041062781 22.099208161
-20.812996799 -0.9176457219 64.872908161
13.154603201 -6.7891637219 21.319008161
16.143103201 42.7928062781 65.922008161
50.861503201 -7.6375237219 -27.882991839
17.187803201 65.1347062781 16.490308161
51.107103201 41.3929062781 21.309108161
10.949203201 21.5763062781 66.524408161
11.494003201 40.5389062781 65.484808161
16.447803201 41.9671062781 19.758508161
15.198203201 -4.7835737219 62.867008161
-24.953496799 -25.1975937219 15.641508161
25.318403201 -5.6409237219 64.729308161
-10.242356799 40.4938062781 105.086508161
-12.840696799 -3.8417337219 22.099008161
-9.231696799 -4.2051037219 15.314608161
-9.295586799 20.6831062781 63.554108161
-16.928096799 41.1041062781 14.930708161
-14.586596799 43.6701062781 21.189808161
20.610403201 42.3592062781 61.230408161
-48.818596799 -53.7551937219 20.665408161
19.616503201 16.6644062781 63.674208161
23.892703201 45.6758062781 -25.437291839
53.722903201 19.6187062781 16.991808161
-10.358396799 18.6923062781 16.646108161
21.977903201 21.4206062781 64.473708161
56.565303201 43.3467062781 61.219108161
23.317903201 42.4091062781 62.614508161
52.272903201 -4.6996537219 17.532408161
19.275403201 41.7987062781 17.810908161
-10.574296799 16.6166062781 -22.474491839
23.742503201 19.4537062781 19.769708161
21.120103201 40.7121062781 19.091108161
23.802903201 -0.6470237219 17.720408161
21.317203201 23.3058062781 19.490208161
59.462903201 47.1167062781 16.487908161
-10.571296799 18.1290062781 21.012108161
-9.012326799 16.7751062781 17.120708161
-8.850936799 -7.1525237219 15.309208161
67.215903201 -7.4169637219 22.231008161
-0.064291799 -25.5510937219 62.927108161
-6.866366799 -0.4889127219 19.723308161
-71.318096799 -5.5113837219 -25.482291839
-3.733236799 -0.5468517219 -29.178591839
30.651203201 16.2059062781 15.006208161
30.912503201 -23.9885937219 19.098608161
-5.430036799 -3.4268837219 15.107908161
-1.346355799 -25.6594937219 64.331308161
-0.825463799 17.1868062781 15.322608161
29.943203201 -5.2292337219 14.936908161
-38.271496799 -1.8395237219 16.463108161
32.695003201 17.0517062781 -24.838291839
32.070503201 -30.6488937219 16.106508161
-7.327936799 17.6344062781 17.179908161
-7.658326799 -0.2491618519 -23.260491839
-7.882666799 -73.8797937219 17.805908161
30.493303201 19.0220062781 20.812808161
28.091203201 16.9384062781 18.408208161
-4.288196799 17.1638062781 21.647208161
-4.966096799 -1.6866637219 21.659308161
-39.207096799 68.0996062781 -24.308491839
-7.892856799 43.3086062781 16.830908161
-7.903376799 -27.2177937219 21.611108161
31.986103201 -28.9381937219 61.812608161
-36.737596799 45.1142062781 -28.850191839
-7.891296799 -5.1577637219 21.164308161
29.166203201 -28.8779937219 17.932208161
28.818603201 66.9519062781 63.961508161
27.763803201 -3.0021137219 16.587308161
63.410503201 -24.0816937219 15.053708161
38.143503201 4.6809562781 22.598708161
2.424043201 -21.3755937219 23.723708161
42.025903201 49.2085062781 26.025308161
40.032703201 -16.3399937219 -17.433891839
7.630173201 29.8526062781 23.520808161
2.412433201 55.1400062781 28.455108161
35.755203201 -20.5998937219 22.664308161
0.190868201 -45.5548937219 27.098508161
42.532403201 53.7622062781 26.423208161
-28.552196799 25.3114062781 25.623808161
41.048303201 -20.6825937219 69.765508161
7.390293201 28.9861062781 27.707808161
37.513403201 -23.1074937219 26.927208161
74.684203201 53.7113062781 72.701008161
5.433913201 26.0327062781 24.091808161
-26.249496799 24.3609062781 -21.820391839
42.926403201 31.3553062781 23.195608161
37.066103201 24.3594062781 -20.920691839
75.139203201 24.9231062781 22.898508161
6.575383201 -44.6465937219 22.323908161
13.891003201 23.9940062781 26.915808161
9.961403201 2.1111162781 22.755008161
-22.562696799 1.7119162781 69.862408161
10.997303201 3.9448062781 27.117208161
9.903103201 30.8482062781 24.025608161
14.453603201 0.1220042781 24.107208161
12.247003201 2.8096762781 26.552408161
49.189003201 1.7439262781 24.261208161
46.366303201 -17.5824937219 29.172108161
46.782403201 72.1991062781 26.859408161
-53.851496799 24.3564062781 72.693608161
11.044003201 -23.4352937219 28.030108161
-24.151896799 96.9944062781 24.381608161
11.124703201 50.7615062781 25.358108161
21.983003201 54.5977062781 24.818908161
21.184803201 25.3669062781 -19.558391839
24.590403201 0.6143232781 29.492108161
-14.212696799 26.4098062781 72.629608161
20.080103201 24.7853062781 23.480108161
55.366903201 0.6099672781 70.939608161
-15.145096799 6.2379962781 73.030308161
89.844603201 7.4011962781 26.170408161
-8.974956799 2.7300562781 70.449008161
25.219603201 -45.1508937219 29.246808161
25.099103201 -16.8221937219 -60.959791839
52.660903201 73.1981062781 25.935008161
-15.439596799 28.8845062781 -17.230691839
21.323003201 -20.0212937219 -19.097891839
56.994703201 24.6636062781 25.976108161
25.504203201 53.4127062781 22.865208161
19.357203201 6.8616762781 71.100808161
17.630203201 26.5115062781 -14.874091839
-12.030196799 1.1713262781 73.900208161
18.884003201 49.4843062781 68.942408161
23.659603201 25.5807062781 23.228308161
-10.736296799 0.8635662781 -19.963791839
17.545903201 31.0471062781 -19.895691839
-49.656496799 25.6223062781 29.272708161
24.632903201 -20.7899937219 27.572308161
-9.534166799 -18.0217937219 24.376608161
54.175203201 26.1681062781 26.391908161
-12.006496799 28.3511062781 26.549408161
-11.361296799 -45.4570937219 27.199108161
-9.334006799 27.7761062781 -19.783591839
28.791803201 24.5338062781 23.351208161
-6.057176799 -20.8759937219 28.320408161
-4.213166799 1.4223762781 -22.035091839
-5.105776799 23.9945062781 24.968908161
60.772703201 5.8046862781 27.911908161
-8.136346799 24.7992062781 -18.572991839
32.364103201 1.9388462781 23.142008161
-1.390876799 24.8896062781 72.295108161
-7.335366799 1.3191062781 67.047808161
29.758103201 3.7847962781 25.499908161
-7.942006799 -18.4849937219 69.376108161
62.061903201 30.2658062781 -15.480291839
28.168903201 5.4606962781 23.520108161
-7.410416799 2.2137162781 74.049908161
27.391503201 2.3280162781 26.901908161
-5.622976799 24.7010062781 28.946008161
-2.545996799 1.1002862781 -18.498991839
-5.641176799 -19.8945937219 24.074908161
-0.717810799 1.0091562781 70.381708161
2.308033201 13.1771062781 29.486408161
7.898823201 34.2910062781 22.390708161
4.157313201 33.7365062781 23.948908161
4.595723201 57.8041062781 26.052908161
42.405603201 -14.7514937219 25.390708161
4.991623201 11.0816062781 -16.791691839
-26.842896799 -12.1805937219 28.578908161
36.111503201 -58.8454937219 -16.274491839
1.082663201 10.5203062781 23.195408161
1.739943201 -38.5936937219 22.385908161
0.188414201 11.9387062781 71.156708161
38.975603201 -10.8189937219 22.731208161
-31.918596799 12.7881062781 69.460108161
7.522223201 -11.2872937219 25.423608161
38.247803201 -14.9299937219 22.798308161
42.386503201 8.9631262781 67.167408161
5.619453201 -9.5094637219 -20.635091839
1.618553201 13.3618062781 -62.786991839
5.981733201 -12.7106937219 73.720108161
36.724103201 11.0822062781 -20.364491839
42.346303201 -10.6095937219 -16.638091839
40.218303201 36.8157062781 25.086508161
-28.572296799 11.6991062781 26.271408161
4.936143201 62.1024062781 -15.028991839
34.913603201 10.8792062781 27.901108161
37.255703201 -32.0672937219 23.872908161
-25.332696799 9.4484862781 -17.076691839
16.352003201 15.2673062781 -18.398491839
77.624503201 -10.6448937219 -18.240691839
49.827803201 -33.4685937219 23.141608161
12.523703201 36.4893062781 -17.885091839
47.465703201 35.3311062781 25.394708161
12.256403201 38.7694062781 23.228008161
79.601103201 -32.5133937219 24.028408161
-22.259896799 -12.0686937219 -22.038091839
-24.801496799 61.1231062781 27.754508161
-24.678196799 -14.1189937219 28.928008161
13.690103201 35.4687062781 27.276208161
-19.035196799 14.6110062781 27.332208161
48.097303201 -36.7584937219 73.239708161
9.267373201 15.5668062781 24.171108161
44.663003201 11.6293062781 22.850608161
50.567103201 13.2687062781 24.469108161
48.061703201 35.4436062781 68.240708161
-23.850996799 -13.9839937219 -20.283691839
-22.474296799 9.8182062781 69.915408161
50.496103201 -14.5890937219 23.902908161
16.519103201 -60.8088937219 25.039008161
10.938803201 32.6160062781 -16.369391839
16.514403201 35.5503062781 28.867008161
15.824103201 37.2539062781 26.076608161
15.444703201 -11.0484937219 -17.015791839
16.675803201 35.4446062781 -20.711491839
12.734903201 14.9008062781 27.011908161
11.331303201 36.6253062781 -61.412691839
52.493303201 14.7157062781 28.530508161
17.246103201 12.3426062781 69.925708161
18.541303201 15.1276062781 22.379808161
-15.583996799 15.7048062781 -14.975691839
25.513803201 31.7852062781 29.296508161
19.629503201 -9.5086237219 25.099708161
-14.750096799 37.6882062781 68.046208161
-15.172596799 32.8316062781 29.584108161
-0.761090799 14.8073062781 25.491308161
30.770403201 15.4561062781 24.350908161
32.072003201 38.3621062781 26.520008161
-2.421746799 34.6579062781 28.794108161
-1.234007799 39.0857062781 27.926908161
26.634603201 -13.5903937219 27.078108161
63.579303201 62.2542062781 -20.063691839
-2.045416799 13.8844062781 28.206008161
29.597703201 10.4819062781 69.185608161
-0.802402799 -13.4125937219 -15.409291839
32.004603201 12.2077062781 27.581308161
30.992003201 -9.7689337219 25.118308161
-37.752096799 -57.7770937219 26.775308161
-0.877864799 -10.7221937219 67.944708161
-5.070476799 -15.2999937219 26.760708161
-1.238087799 11.2196062781 25.746908161
28.703103201 9.7539462781 27.651908161
25.997003201 32.7378062781 25.761808161
34.605403201 -2.8814337219 25.762708161
34.483703201 22.3074062781 74.185208161
4.655723201 17.4502062781 26.417508161
-25.840696799 -27.5482937219 22.386808161
-30.939096799 44.3591062781 23.089108161
-63.203396799 21.3679062781 71.858208161
2.421613201 20.9184062781 -61.932891839
41.451803201 -23.8662937219 25.788508161
4.879443201 16.7978062781 22.405408161
7.808303201 22.1539062781 25.538508161
8.594763201 -1.9846837219 -16.523491839
6.867843201 64.3537062781 25.589208161
-30.402896799 20.8437062781 26.244908161
2.890803201 67.0541062781 -18.481191839
42.184803201 42.0033062781 -18.392291839
0.400139201 15.9648062781 72.879308161
-26.822296799 16.4716062781 -15.336991839
36.094503201 23.2583062781 24.389008161
73.736703201 22.2514062781 -21.720391839
2.788053201 -6.2143437219 23.839208161
36.189303201 -0.6154937219 -18.374791839
35.987603201 -0.8805727219 -59.780391839
36.072403201 40.7334062781 27.741408161
3.768883201 18.2983062781 -19.299191839
41.698203201 -2.8860937219 113.094508161
-26.117996799 43.9196062781 28.959508161
-30.526596799 -3.8117737219 24.655208161
-32.111096799 21.1758062781 28.817208161
40.153703201 -5.3614537219 22.736708161
-62.021296799 -4.3343637219 23.195208161
37.475303201 71.1032062781 69.817008161
1.206223201 -6.8957937219 23.754108161
40.856803201 -29.7226937219 -17.490191839
5.167483201 -5.8924237219 -16.502091839
39.700103201 21.2180062781 29.062908161
-23.605196799 17.2403062781 24.619508161
13.791403201 -6.2188937219 27.771408161
-22.192496799 22.1683062781 -21.193391839
-18.787696799 20.2121062781 -17.376791839
49.320803201 19.6400062781 24.794608161
9.918203201 -4.5818437219 -15.232191839
-22.860796799 -2.6980137219 -19.744291839
-19.718796799 44.7293062781 25.867608161
-23.462596799 44.4392062781 28.924808161
48.824303201 -6.7130637219 -19.736291839
13.077003201 43.1987062781 -19.719891839
9.459533201 19.6189062781 26.014908161
-19.761896799 -0.7128067219 -63.408891839
10.053903201 -6.2521137219 27.511508161
78.885003201 19.8335062781 22.910408161
15.853203201 -6.7322137219 25.761708161
10.875103201 -5.4248837219 23.149608161
16.102303201 23.6944062781 -19.538591839
14.068703201 19.6462062781 23.304708161
16.932003201 -6.5634837219 28.567708161
11.546403201 22.4142062781 29.309308161
43.543003201 16.3922062781 72.911908161
12.681203201 -53.5017937219 25.292508161
-20.327696799 20.8071062781 -16.910691839
15.628803201 17.6985062781 71.910608161
81.857403201 42.6338062781 -16.714291839
43.585503201 -0.7330587219 22.556008161
8.651733201 16.7055062781 25.591808161
50.879703201 20.3621062781 68.379608161
45.003703201 22.1978062781 27.794608161
-21.006996799 -1.6119137219 -17.795691839
15.033603201 21.2949062781 22.832808161
9.079533201 39.8318062781 22.390508161
16.055403201 23.3647062781 73.850908161
-23.019996799 43.0989062781 28.082508161
17.112003201 21.0673062781 71.900008161
-9.345786799 -0.3419227219 68.437708161
22.116803201 22.9786062781 71.314708161
52.152203201 39.8746062781 71.750808161
19.724303201 43.0160062781 -20.195391839
-45.140496799 20.5246062781 -19.255891839
86.728103201 -7.2130937219 -21.342791839
24.862903201 43.3399062781 25.780008161
-11.850096799 22.3693062781 67.074608161
-13.158896799 -6.6519937219 26.236508161
-46.446096799 21.4025062781 26.023108161
24.966103201 89.0860062781 26.224508161
18.372703201 41.7131062781 29.125208161
20.295203201 -26.6996937219 29.184108161
93.041803201 -1.3983537219 -21.680991839
54.671103201 46.2157062781 28.743308161
22.914903201 -5.0066837219 67.083908161
24.144803201 16.4673062781 23.901308161
-49.058796799 41.2339062781 26.049908161
-48.012096799 18.8437062781 -18.107191839
57.375303201 67.3735062781 28.744608161
-12.976996799 47.3494062781 28.682308161
86.965603201 20.2417062781 24.498008161
53.768903201 -0.4250327219 67.217208161
-11.903196799 -6.1072637219 25.358108161
20.032503201 20.0662062781 -21.616891839
18.225303201 46.2010062781 71.298508161
58.746803201 -26.5784937219 29.645208161
21.853703201 43.8235062781 72.043508161
-11.711196799 16.9772062781 68.059808161
18.081403201 -29.6925937219 -17.339991839
54.575603201 -3.9591037219 27.631208161
24.270603201 -2.9124037219 23.566308161
18.725703201 21.8724062781 -19.401891839
-8.781856799 40.9497062781 69.076408161
-3.291696799 41.2261062781 28.266208161
-38.431096799 41.2079062781 -19.488491839
63.646303201 -1.9387037219 27.916408161
32.200303201 43.3831062781 -21.628291839
31.017403201 -2.5024637219 28.212808161
65.504503201 40.2397062781 22.750108161
25.991903201 -48.1218937219 -18.119391839
30.289803201 -3.4470837219 -17.677191839
65.756603201 -3.0991437219 23.944808161
61.606703201 17.4518062781 -20.120591839
28.229303201 20.9271062781 24.735708161
-5.224426799 -27.6432937219 -21.150691839
26.874803201 20.1321062781 25.925608161
29.991103201 -2.9604937219 25.041908161
61.354803201 45.4511062781 -18.015291839
-5.105406799 -24.0395937219 27.772708161
-0.124841799 -28.2034937219 22.662208161
60.227603201 -2.2796237219 29.069708161
32.683803201 -0.2287113219 22.775808161
-0.344727809 -23.8758937219 27.102608161
28.797003201 -29.4015937219 24.307408161
30.761703201 23.6251062781 70.357508161
32.119603201 -49.1820937219 23.289008161
-0.315563299 -27.4253937219 27.274208161
33.298403201 42.2245062781 -18.865391839
29.928603201 -5.0275137219 72.328208161
-4.152386799 40.7159062781 27.126708161
-8.541096799 -2.3697037219 67.598408161
32.433203201 23.2676062781 70.759708161
-0.082883799 -7.6004137219 23.213408161
34.153703201 -24.8788937219 67.685908161
-31.526196799 26.5279062781 -7.947411839
34.550103201 -39.9803937219 35.709108161
41.708203201 -40.1777937219 -13.777391839
3.183543201 7.8993162781 36.381408161
35.073303201 24.9857062781 36.470108161
5.227603201 6.2920162781 33.790908161
4.277453201 -19.1961937219 -10.775491839
2.105843201 -46.6848937219 77.562708161
5.980833201 50.7976062781 36.427408161
1.773353201 28.7847062781 34.854408161
-65.188296799 53.5273062781 34.683608161
4.415883201 -16.4272937219 -13.633891839
38.943503201 97.1989062781 35.784708161
6.160173201 28.4585062781 31.000508161
5.276823201 5.8790462781 29.931208161
3.270303201 -17.8934937219 75.408308161
0.073526201 25.1180062781 -12.783991839
40.344003201 52.2139062781 33.061508161
0.250016201 3.1427262781 -10.640991839
37.548703201 4.5814162781 32.186108161
16.687303201 26.4992062781 31.373408161
16.378603201 6.6299962781 -10.803791839
11.536603201 5.5791362781 30.781808161
-17.219096799 0.6173782781 33.926008161
44.254503201 30.1979062781 -11.475391839
-24.185196799 30.4202062781 -13.063691839
14.952703201 7.4735562781 -10.256031839
17.054203201 25.9834062781 -9.655071839
-59.057896799 29.5772062781 -14.625191839
14.470603201 47.9560062781 29.706508161
15.386203201 0.2767272781 -11.671491839
25.666303201 -42.9189937219 35.058308161
55.972103201 -17.5057937219 35.579208161
25.092403201 24.9922062781 -7.999361839
22.854703201 -42.2719937219 -8.667921839
54.155503201 1.0945862781 -13.467691839
52.185803201 27.8361062781 -13.626691839
22.916703201 30.7627062781 36.094708161
18.546103201 -46.6350937219 32.158908161
22.378503201 -20.7874937219 -8.898261839
23.785603201 -17.8894937219 -7.465941839
19.625603201 71.2443062781 29.750608161
-16.566896799 51.1957062781 34.260008161
-17.089796799 2.0109162781 36.650708161
-9.440676799 0.3172492781 32.834508161
20.421903201 -17.7332937219 34.468308161
56.714003201 50.1616062781 30.335408161
-13.654696799 2.6393762781 31.248508161
90.260303201 2.2650262781 33.507608161
-13.432796799 2.9652262781 36.626208161
23.766803201 28.3735062781 34.602008161
53.331203201 -46.3567937219 36.846508161
-9.396486799 25.5943062781 -11.051991839
18.930303201 28.3936062781 34.954408161
-14.910996799 27.6916062781 -12.945591839
-10.408596799 26.7086062781 30.389508161
27.210803201 7.9018762781 -14.713391839
29.959803201 -22.8729937219 74.705708161
-2.118946799 51.7629062781 32.683908161
-37.664096799 -21.7064937219 34.418808161
65.108203201 0.9418662781 32.984308161
-2.874876799 5.0962062781 35.991408161
-7.880856799 48.4941062781 -8.798991839
-41.124396799 1.8333262781 -9.517301839
28.660603201 -67.7612937219 -9.034511839
31.041303201 25.0696062781 -8.504841839
-8.183566799 -20.7684937219 -10.443071839
66.262303201 5.1954362781 29.781008161
-34.946596799 0.0564652781 -10.618691839
27.810203201 6.2216062781 -8.052441839
34.110103201 -18.5003937219 32.384908161
-1.319630799 28.5770062781 36.345508161
-35.209196799 -21.9772937219 -11.203191839
31.756703201 49.8744062781 -11.819491839
26.339603201 5.2173662781 36.525208161
-1.372676799 6.4642762781 -8.371021839
27.407603201 -21.3748937219 -13.332091839
29.022803201 71.7370062781 32.910208161
26.309903201 -40.5134937219 -52.351691839
38.046003201 15.6532062781 29.707008161
-27.760896799 14.7035062781 29.861308161
1.385263201 39.1890062781 33.394908161
71.842203201 34.0674062781 31.113308161
7.663243201 -8.0661137219 31.010108161
34.525003201 14.6318062781 36.371008161
42.248203201 9.6465662781 36.265608161
-28.186796799 -11.6295937219 80.889008161
39.062803201 -15.7247937219 33.521908161
35.846903201 13.3402062781 -8.511201839
35.771803201 34.3429062781 -8.789951839
-30.924396799 39.4652062781 -10.364651839
8.248813201 13.4798062781 32.526208161
7.321633201 -31.9430937219 79.293808161
-27.439696799 31.6708062781 36.501208161
38.944903201 -33.7007937219 -8.836231839
1.472203201 8.1147862781 32.555508161
36.035903201 -11.7059937219 36.680908161
38.950303201 59.4871062781 -8.481411839
2.895093201 -56.8728937219 -8.903131839
3.970283201 10.6149062781 34.666608161
-32.751296799 -13.0416937219 -10.277881839
40.549003201 -8.5208637219 31.608208161
7.438663201 -12.4086937219 35.689508161
41.431703201 10.5182062781 31.994208161
40.803703201 8.7145562781 31.613608161
5.844943201 35.7449062781 -12.210691839
38.389803201 -62.4786937219 79.582708161
6.347193201 13.5582062781 32.285908161
-30.538396799 14.0009062781 34.203508161
-33.749996799 36.1592062781 -13.962391839
37.550103201 14.3198062781 74.849408161
38.358303201 11.4322062781 32.827408161
7.375963201 -9.3242737219 78.111608161
7.905923201 12.7847062781 36.375708161
-18.694396799 39.5219062781 74.683908161
9.288213201 -37.4995937219 33.059608161
45.718903201 31.9028062781 -13.440491839
50.519503201 -32.2195937219 34.840808161
-20.439996799 13.2421062781 75.190308161
80.892703201 13.2398062781 -10.823091839
9.775403201 -15.3531937219 34.110808161
16.516103201 -8.8245837219 31.142708161
44.315903201 33.0702062781 30.942108161
44.976003201 34.4292062781 29.822108161
-20.055196799 -15.3318937219 -11.588891839
12.684103201 14.6201062781 -14.412491839
-52.785396799 -11.4071937219 30.466808161
8.900703201 63.1265062781 -8.834641839
14.265903201 10.0627062781 -10.533691839
16.638603201 56.7233062781 36.608708161
47.490803201 33.8240062781 32.847508161
43.496703201 12.1150062781 -9.141591839
11.400703201 -32.5107937219 78.283008161
48.130203201 -12.0613937219 74.726408161
14.083303201 13.6037062781 -11.541191839
-25.522996799 61.1871062781 -13.544691839
9.043723201 15.2526062781 76.302408161
15.922703201 58.2373062781 -10.673991839
10.900003201 -14.2220937219 33.913808161
47.076003201 -9.1689537219 32.936708161
82.009003201 15.5022062781 36.438108161
13.011903201 35.2010062781 76.246508161
80.330403201 36.0917062781 -12.134391839
19.140203201 -14.5354937219 34.440008161
24.265203201 36.3247062781 35.492808161
-49.197596799 11.8035062781 35.374008161
56.494603201 -8.9229137219 -53.119991839
59.795203201 -34.0358937219 31.875908161
20.225503201 -34.6010937219 31.174108161
22.232003201 37.5346062781 33.089608161
56.394003201 -34.8759937219 -12.970991839
55.637203201 14.9159062781 -10.358891839
-13.688096799 9.3966962781 33.761008161
-13.965396799 -8.6053937219 -8.940751839
-12.376496799 10.2350062781 34.834208161
53.314703201 -10.9524937219 32.059108161
19.520803201 -14.1040937219 36.525308161
-16.704996799 -9.4936737219 32.440608161
20.814303201 11.1654062781 34.257708161
20.730903201 39.0047062781 32.598908161
22.632103201 13.0833062781 35.947708161
54.180703201 14.1885062781 31.751108161
17.690703201 14.7088062781 35.595708161
24.423503201 38.3081062781 32.942508161
51.722603201 10.0204062781 -12.073691839
-8.354386799 -8.4833137219 34.922008161
-1.938506799 35.8284062781 33.893608161
-42.040396799 14.7704062781 36.381208161
26.758403201 59.3659062781 35.117808161
29.560603201 34.4201062781 32.774808161
31.071303201 38.4571062781 32.992008161
-4.246866799 -33.2114937219 -8.057191839
-1.852356799 34.4308062781 34.718208161
30.467303201 34.6417062781 29.765708161
31.657103201 9.7445762781 35.925408161
-38.898196799 32.6377062781 35.865508161
-40.445496799 -37.8791937219 36.881308161
62.536303201 34.2999062781 -9.034201839
32.398903201 -9.7741337219 34.197908161
27.128103201 13.1721062781 -12.377291839
29.754403201 -11.3379937219 36.367608161
-42.032896799 -14.1405937219 34.974808161
-5.940816799 12.0576062781 79.655708161
-3.827396799 14.2036062781 31.396908161
-3.405156799 11.4787062781 33.145308161
-1.238996799 61.8005062781 -8.840631839
-0.862109799 -10.3975937219 30.960508161
28.948603201 -35.7241937219 -14.599891839
-0.068988799 35.9239062781 32.070008161
-5.627836799 62.6098062781 35.826908161
30.124203201 15.5500062781 74.779608161
26.055403201 -58.2334937219 80.821108161
28.713603201 -34.4241937219 32.668008161
35.613503201 39.8781062781 -12.663491839
0.979813201 63.4592062781 36.868708161
74.289303201 41.9163062781 -10.247821839
74.568303201 -4.7891037219 30.718308161
38.871403201 21.9206062781 36.869208161
3.662963201 46.0621062781 -9.226371839
35.749403201 -4.5992637219 35.505308161
2.310373201 64.9248062781 -12.989891839
42.572203201 -29.2511937219 32.986208161
-33.436096799 19.4386062781 75.849008161
37.848703201 -6.2893737219 30.337608161
-32.685596799 41.3353062781 35.221308161
5.276603201 19.9056062781 34.631608161
2.230343201 44.1876062781 76.491108161
75.839203201 -5.7601637219 74.567808161
38.111903201 44.7933062781 -14.817591839
0.591497201 -6.5004537219 33.442708161
73.074203201 -2.9865437219 35.603708161
41.170903201 43.7879062781 31.577808161
3.416253201 -2.2669137219 31.391408161
7.248353201 17.3426062781 -10.212461839
6.325323201 -3.0217937219 33.107908161
38.897203201 -28.8510937219 74.322908161
72.534303201 41.1631062781 81.599308161
2.944693201 -52.0061937219 36.877108161
17.118903201 23.5810062781 32.442008161
50.627003201 44.3672062781 -13.071691839
16.739703201 17.2367062781 -11.953491839
-17.425496799 -2.8987637219 -9.492461839
13.966203201 19.4405062781 -10.271951839
11.938003201 22.1667062781 76.919408161
46.919803201 41.7550062781 31.952508161
16.909603201 -4.5179737219 80.210508161
14.954303201 19.8989062781 -13.946891839
48.981603201 70.3282062781 -10.534191839
-18.482196799 16.6315062781 34.068408161
10.896903201 -27.6845937219 75.280608161
46.226003201 -31.4882937219 35.509808161
48.699603201 17.3851062781 34.261608161
45.743703201 42.2341062781 -9.995401839
12.448103201 -1.1285917219 -7.896771839
15.071603201 -6.4342437219 -11.804991839
-21.640996799 -3.9393137219 79.841208161
50.310203201 -30.8611937219 -13.070691839
-21.996696799 39.9525062781 30.935508161
10.301503201 63.5284062781 77.358908161
9.567693201 -6.2492037219 -12.075691839
13.856303201 -0.0372087219 35.687608161
10.871403201 -29.1561937219 31.518608161
14.947103201 -2.7552437219 33.988108161
-20.458196799 18.6314062781 -11.767291839
-14.794996799 -24.6288937219 34.921908161
23.477303201 21.8006062781 -13.625491839
-8.788716799 -24.1845937219 36.102008161
-15.399196799 -28.9434937219 -13.783391839
52.866003201 21.4470062781 34.240208161
17.431603201 64.3836062781 -9.671441839
20.622303201 41.3175062781 34.845908161
-13.525796799 -1.3767837219 -11.651591839
21.456103201 -54.4377937219 -11.664191839
52.336203201 -29.6284937219 36.134308161
-10.871296799 -5.0614137219 -8.816171839
58.883703201 -24.6493937219 34.316808161
20.237103201 19.1438062781 34.979908161
22.085903201 19.2821062781 32.347208161
19.166603201 -30.4448937219 33.997408161
23.823303201 16.7897062781 -11.218591839
-11.599196799 -29.8688937219 32.204708161
24.552203201 -29.4724937219 34.430008161
22.758103201 20.3027062781 35.608908161
18.218903201 -24.3983937219 -10.455191839
54.623503201 20.8119062781 -12.269491839
-10.216616799 -0.2345296919 36.766208161
23.980103201 20.8004062781 32.243008161
-14.612796799 -3.7491537219 30.919808161
25.112503201 -3.9360737219 32.902708161
54.253703201 43.9898062781 33.938508161
21.342403201 22.7917062781 79.070808161
-10.067126799 20.3474062781 35.701108161
23.939603201 20.9102062781 34.051408161
-10.087706799 -5.3970837219 -11.876691839
19.554903201 16.9681062781 -14.490091839
18.117103201 -5.7879637219 77.554808161
-9.162466799 16.1645062781 -11.738091839
17.718703201 -2.8859837219 74.920008161
18.686303201 -7.7755237219 35.051108161
53.973403201 -24.2449937219 36.718908161
30.459003201 40.0516062781 77.930808161
31.750103201 68.2817062781 -14.767091839
31.252103201 16.7209062781 74.359308161
-1.629016799 46.2222062781 30.819408161
28.821103201 16.2627062781 34.240608161
-4.261296799 17.1651062781 31.032808161
-34.682996799 -7.6692937219 74.379908161
-0.302017899 20.8390062781 33.552108161
-0.671625799 -4.9229337219 31.071508161
95.150203201 -24.5466937219 30.056708161
34.125003201 23.4349062781 31.136108161
-0.986961799 21.0184062781 35.292308161
-3.083846799 17.8285062781 -12.021691839
-4.657906799 43.8828062781 34.401808161
-3.588946799 22.3107062781 31.937408161
65.292503201 -2.8842137219 32.815308161
-2.247546799 -6.7466437219 33.987408161
-1.419356799 -29.6510937219 32.130208161
27.711603201 45.6005062781 77.739508161
34.061603201 18.9145062781 32.872008161
34.181403201 -1.3353437219 32.865908161
-6.065246799 22.7005062781 32.004108161
-4.192316799 -0.3479427219 36.139908161
27.141203201 -7.7478937219 33.674208161
65.654603201 23.3002062781 30.449308161
-3.657946799 -3.1034237219 31.005408161
28.930703201 -3.7033437219 30.616208161
-6.047266799 66.5402062781 33.544308161
-36.007696799 -6.8277537219 119.729508161
33.325203201 70.4460062781 35.443708161
94.782003201 -0.5734747219 31.803008161
-6.143386799 20.8944062781 -9.812831839
1.202823201 3.9438962781 87.834608161
1.937093201 51.3627062781 -2.714561839
2.853813201 -19.2375937219 43.460008161
37.158403201 6.3294162781 43.560508161
5.519553201 26.2563062781 42.375508161
42.458303201 49.5382062781 -4.094321839
38.449303201 31.1121062781 -1.432667839
5.629003201 4.7689562781 -6.912641839
-27.422696799 -17.4131937219 37.288608161
35.584003201 52.4869062781 -3.856201839
41.424303201 5.3137862781 -0.275854839
-28.244096799 50.5360062781 82.628408161
-26.882196799 50.5094062781 39.065008161
-29.567596799 25.7168062781 -5.733421839
1.682043201 26.2041062781 -49.770491839
5.809433201 29.9468062781 38.754608161
4.111443201 5.4806962781 37.560708161
1.606743201 30.4618062781 -3.338961839
4.230203201 30.7553062781 82.267908161
41.537403201 31.5152062781 88.604608161
0.970283201 -19.6090937219 38.748508161
5.857583201 5.6678762781 -3.970951839
36.941403201 51.6908062781 -6.721491839
1.325963201 48.2528062781 42.848008161
38.219203201 -20.1744937219 41.602708161
108.529003201 4.2663862781 41.576408161
5.493293201 30.8738062781 -2.811581839
35.024903201 49.3853062781 43.654308161
41.000403201 3.4113962781 -45.947091839
1.775803201 25.2017062781 44.440708161
34.640303201 -16.5756937219 -6.213651839
-21.250496799 -21.8088937219 -1.343714839
-20.329196799 2.6937462781 39.479708161
9.577493201 28.1646062781 -0.440374639
-19.214396799 49.1013062781 38.450508161
45.084903201 29.4319062781 41.762908161
16.855503201 51.1799062781 37.174208161
10.856903201 5.2779862781 -1.098493839
14.947903201 -21.8379937219 40.748008161
50.123403201 3.4748362781 -2.948121839
78.063803201 -44.9885937219 -1.395015839
-25.099096799 26.4545062781 -3.174291839
-17.545496799 28.3586062781 85.128008161
8.832583201 6.2177262781 38.210508161
12.972203201 0.2450992781 -1.645151839
-18.844896799 3.9953262781 43.319108161
47.997903201 24.9330062781 41.398108161
-21.988096799 -21.3841937219 -3.915641839
-25.500196799 29.3400062781 -3.157081839
14.652603201 -20.9264937219 88.480108161
48.327303201 26.8663062781 -2.574361839
14.097103201 51.9462062781 39.302708161
20.193003201 -21.9672937219 37.710408161
-9.692216799 29.4934062781 41.596708161
57.393103201 -17.6334937219 41.328308161
52.456203201 1.5269462781 -4.654071839
-49.752696799 30.1253062781 -3.030161839
17.612603201 -17.3786937219 -7.389741839
23.430003201 48.0398062781 -4.178351839
-12.305796799 27.0230062781 40.260508161
22.219403201 6.1362062781 39.882908161
19.411503201 7.5315562781 40.241908161
53.735403201 28.1913062781 83.601008161
19.747903201 1.0669762781 41.612508161
18.561903201 3.2115962781 42.990808161
22.639503201 50.4790062781 -47.290291839
21.052103201 4.4523562781 39.491808161
-14.061996799 30.3552062781 -1.768261839
-9.106306799 48.1994062781 42.171708161
-10.215686799 23.9710062781 43.725808161
22.747703201 73.1585062781 -4.934331839
21.502303201 -19.9701937219 88.468908161
18.146703201 -42.6346937219 37.820408161
23.575403201 6.6807962781 42.807708161
58.020903201 5.9282962781 44.240908161
19.029503201 1.6872862781 43.378208161
-9.383596799 -23.6333937219 -4.071251839
20.344503201 27.1766062781 38.141208161
54.865303201 28.9866062781 86.289008161
-11.208196799 28.0395062781 44.270608161
59.907803201 5.9679962781 37.935808161
18.278103201 23.8277062781 -3.423271839
19.394603201 -20.7062937219 89.043008161
-5.689856799 26.9887062781 81.648008161
27.851303201 6.6637662781 -4.538851839
-8.148926799 -44.6899937219 -5.574511839
-0.508467799 -19.9009937219 37.805408161
65.094603201 26.2298062781 -6.902631839
27.160903201 3.8408862781 -1.359997839
-37.978896799 1.0200162781 39.307708161
26.466903201 26.0397062781 42.476508161
-5.224276799 27.8582062781 -3.389171839
-1.264328799 50.7882062781 41.878908161
27.904503201 49.1397062781 41.618508161
60.398203201 7.6275862781 44.279608161
31.587103201 6.0665262781 39.664108161
26.408303201 5.2856762781 42.715808161
-0.159504799 6.0047362781 41.277208161
28.661003201 6.6487362781 -6.580721839
30.340803201 28.9361062781 -4.089681839
-35.877896799 30.4084062781 40.748108161
-40.314196799 5.2921562781 -4.245351839
32.909503201 1.6809162781 -0.328775839
31.427603201 -23.3302937219 -2.454481839
-0.334370999 24.7227062781 42.548508161
-1.068488799 -46.8507937219 41.206008161
64.610403201 29.3564062781 38.513608161
32.227003201 26.4069062781 -6.371321839
62.375403201 50.2164062781 38.547008161
-1.373056799 2.3159462781 84.928908161
31.920903201 25.0012062781 40.460208161
26.906303201 0.6388642781 42.869808161
-3.165036799 30.0156062781 41.403208161
-34.598696799 28.3979062781 -0.465623739
7.180113201 13.3914062781 -6.626531839
41.215703201 8.2109662781 -47.696491839
0.068553201 -36.3237937219 39.003308161
39.884303201 14.6982062781 -1.323414839
-33.542696799 14.5110062781 87.566008161
7.609853201 14.5018062781 -1.140078839
2.507463201 38.0412062781 -1.895021839
39.374303201 14.5638062781 37.524508161
2.005183201 62.7054062781 39.944508161
35.253803201 34.3409062781 37.399908161
3.645153201 56.1542062781 -6.619811839
1.289953201 55.5963062781 39.169008161
3.068883201 62.2272062781 -3.504011839
-26.207896799 14.1526062781 -48.634791839
1.924043201 61.0595062781 38.902308161
4.801033201 33.6699062781 -6.333871839
40.027103201 9.3054462781 -4.103311839
39.831603201 14.4303062781 86.045108161
37.794103201 35.8054062781 83.569008161
0.415438201 36.8360062781 -4.989671839
73.269703201 59.3969062781 40.226208161
0.144713201 34.9810062781 42.756708161
-31.293396799 11.0103062781 -3.462121839
42.014903201 12.4640062781 -3.754181839
5.772873201 12.8012062781 41.026608161
-27.621896799 9.5522462781 43.852208161
-62.727496799 -13.4132937219 39.353708161
7.493123201 -15.2671937219 39.888908161
1.232313201 8.3018062781 40.718508161
-29.873896799 11.5126062781 41.998508161
1.804363201 -32.6837937219 44.391808161
42.890903201 9.6067762781 39.050508161
42.653503201 -10.8124937219 39.129908161
42.692203201 -10.6072937219 -2.358671839
-25.870896799 -36.4146937219 39.836208161
42.768303201 -8.5752737219 -2.631861839
44.943603201 15.6456062781 -6.207451839
44.091303201 13.8928062781 39.585608161
-24.518496799 -33.1209937219 41.231908161
20.747303201 38.6478062781 37.159708161
24.979703201 -14.8700937219 -4.954011839
23.060403201 35.3177062781 41.604708161
-15.117696799 -9.9646537219 41.099408161
-14.316896799 -11.5604937219 -6.267641839
57.875103201 9.1920762781 -0.834258839
25.082703201 36.0143062781 37.554208161
20.861903201 63.0936062781 -1.523571839
19.870903201 -39.0761937219 -2.300841839
23.073303201 -9.7259637219 39.687108161
-8.764006799 -10.0768237219 87.254308161
21.078903201 7.9225962781 -5.181211839
20.536503201 -9.9654637219 82.836108161
55.401803201 13.8795062781 -1.427776839
56.656803201 10.6927062781 37.943308161
-43.097696799 12.2160062781 -5.229451839
18.896103201 35.7951062781 41.258908161
58.193003201 9.5121262781 38.915708161
23.166403201 9.9235062781 -2.479431839
-12.282196799 9.2405662781 38.703608161
-13.478796799 8.5735162781 -3.470421839
-14.233396799 35.3644062781 39.842208161
55.556003201 32.5204062781 37.612208161
-15.069696799 14.4714062781 42.813408161
24.094103201 13.2924062781 38.807308161
55.381203201 -33.2150937219 40.099508161
-10.058806799 -32.6571937219 42.615108161
-0.712296799 8.0393862781 81.788808161
32.612003201 56.7749062781 -6.754971839
-6.188966799 34.6931062781 -0.542604639
32.585003201 -34.3368937219 43.683908161
-4.144576799 10.0272062781 -4.098371839
30.452503201 -11.5591937219 -6.451251839
-1.172250799 11.0207062781 37.644508161
61.106403201 -14.0806937219 -5.272321839
32.463103201 -10.0230137219 -2.485871839
26.295403201 8.8186262781 40.819708161
31.951803201 36.2893062781 40.908708161
32.110103201 11.4440062781 44.258308161
33.711303201 32.2176062781 40.943808161
-5.446006799 12.2706062781 -1.274981839
26.724203201 -35.3820937219 -3.843631839
63.859503201 -15.4479937219 37.555008161
60.629503201 62.7210062781 -1.639581839
-1.122521799 -33.4101937219 37.301708161
-5.404286799 8.0235962781 -1.905931839
-2.861566799 58.3595062781 -3.329251839
-2.801356799 -13.5509937219 42.748508161
-1.871036799 36.3136062781 -6.596721839
-7.152286799 36.7822062781 39.593108161
31.603503201 36.8688062781 39.294708161
-6.162386799 10.1327062781 38.558708161
-7.420596799 10.3720062781 -3.525021839
29.193403201 13.4876062781 -2.512911839
6.844633201 39.5830062781 -3.798851839
38.562603201 20.2128062781 37.473708161
-31.784296799 65.6172062781 -6.356331839
36.771103201 -6.2798337219 42.853408161
-32.350996799 16.5806062781 88.841608161
1.420753201 -27.6243937219 -0.353449939
2.729103201 64.8965062781 -47.727291839
38.014103201 22.1017062781 38.491508161
38.402503201 41.7281062781 -2.072261839
37.656003201 44.3910062781 -2.746591839
0.377820201 44.7877062781 42.946308161
39.423003201 16.3531062781 37.119108161
2.837143201 -26.7537937219 -0.908437839
39.179603201 -0.8643797219 42.866808161
38.465403201 23.4319062781 41.334408161
6.884953201 -7.7306037219 -46.519091839
1.144313201 17.1898062781 82.675508161
-33.903196799 39.6409062781 -0.502023939
3.607023201 -5.6460237219 -4.805181839
6.964443201 23.7308062781 -0.168953839
35.122403201 17.2702062781 -3.070321839
37.836703201 -1.7867337219 42.612808161
36.909003201 -23.9179937219 41.872408161
39.069103201 -1.8845737219 41.390408161
3.263383201 16.3525062781 39.897208161
-19.488196799 -6.4867937219 38.598508161
17.003903201 -6.2227537219 -1.542071839
48.587203201 21.2195062781 42.681508161
77.563203201 -7.7842137219 37.317508161
50.977103201 42.9535062781 -1.158846839
-53.021996799 -7.1547937219 84.476108161
10.290703201 39.7568062781 -4.663401839
45.970203201 17.2909062781 40.351208161
13.105603201 69.9727062781 -5.251601839
10.886403201 47.0696062781 -0.141008839
17.144603201 47.1227062781 42.377208161
9.769003201 -29.6719937219 42.291808161
-22.561496799 -24.4462937219 41.763108161
47.073903201 44.4006062781 -1.044473839
-18.447196799 -23.7841937219 43.529808161
14.277703201 18.4787062781 37.553008161
47.274203201 -4.3549937219 37.206008161
11.117503201 44.4575062781 39.709908161
-18.641496799 22.0853062781 -6.790781839
11.246103201 41.6515062781 -1.388608839
-23.767896799 -3.6450337219 41.545708161
12.796003201 18.9968062781 43.509208161
15.640303201 18.2832062781 42.271308161
-19.185496799 42.1075062781 -4.201681839
-52.668196799 -2.4848837219 -5.085281839
-18.023996799 -7.5838437219 -50.738191839
-19.998896799 -24.4474937219 -0.957915839
-19.810796799 22.0036062781 -5.219051839
-20.595596799 -2.1717937219 44.524108161
-9.441166799 16.4728062781 43.223108161
23.012203201 -24.7494937219 37.775308161
19.086303201 -2.2182837219 37.573508161
56.709303201 -30.1895937219 40.010608161
20.365903201 -1.4572637219 39.508908161
56.231303201 64.7157062781 37.818708161
-12.153296799 -2.5270237219 37.283208161
56.771303201 47.2718062781 -1.400832839
18.243103201 42.5146062781 -46.378391839
21.764703201 17.1418062781 -2.030701839
21.108903201 20.8400062781 40.066908161
-14.097396799 -27.6813937219 41.201508161
90.926003201 18.3878062781 -1.077279839
-13.215796799 65.6972062781 -3.433141839
53.896003201 18.4672062781 41.163908161
17.965703201 -1.6639537219 132.194508161
20.071903201 47.2368062781 40.572408161
18.518103201 18.8480062781 -5.529531839
18.433003201 43.5756062781 40.956808161
19.435903201 16.1699062781 -5.796091839
23.008403201 -26.3818937219 -4.354321839
-14.680896799 -24.9194937219 44.081808161
57.948703201 -7.7609737219 39.899008161
-11.244996799 22.7931062781 -4.804481839
21.032603201 -25.3525937219 -1.408348839
-14.477196799 -2.6621137219 -1.347598839
86.436703201 -2.1505037219 38.343408161
55.193603201 -2.8014237219 38.036408161
52.366503201 17.2362062781 -5.782001839
17.845403201 -3.4129137219 -1.849991839
26.303203201 39.6044062781 -0.081704839
26.012403201 46.5738062781 85.828108161
34.182303201 16.3864062781 -1.927351839
63.795603201 -24.6194937219 37.540908161
62.428403201 -23.8299937219 41.346608161
26.832103201 23.3511062781 40.022508161
34.043503201 19.7074062781 43.415608161
-2.568556799 16.2252062781 44.206908161
28.958003201 -1.3028637219 -44.782091839
-3.850016799 -48.2259937219 38.943108161
-1.609186799 -2.8323737219 44.003908161
69.106703201 24.4687062781 5.249148161
37.915903201 4.0866762781 46.550808161
1.222763201 -17.1233937219 46.607608161
-33.129596799 7.2615762781 5.476398161
38.576503201 2.8509962781 45.705608161
2.602753201 2.1008462781 -42.723491839
1.551233201 30.7968062781 0.262373161
8.237283201 55.1766062781 0.899708161
-34.262796799 31.3652062781 6.955848161
46.341703201 -17.5346937219 89.171608161
13.751603201 6.3446562781 0.039401161
85.373903201 2.6885162781 -37.226191839
-17.718596799 -19.6638937219 50.907708161
14.468103201 31.4739062781 49.661808161
11.372603201 7.6192262781 0.697798161
-17.752796799 28.4929062781 2.478388161
16.586103201 6.2307162781 3.866518161
-18.354496799 6.4406362781 -42.567791839
46.262003201 6.4924162781 46.435808161
13.209903201 5.3796062781 1.349388161
-19.116596799 -17.5130937219 4.932418161
48.920103201 30.5097062781 1.677378161
47.562603201 30.6213062781 47.289208161
14.068103201 4.9250662781 49.280408161
13.577903201 -17.2597937219 4.386078161
18.374703201 -18.8762937219 51.505608161
-8.983476799 3.4098862781 45.930908161
-15.500096799 29.9256062781 45.761408161
18.071103201 28.8130062781 48.229808161
-12.982096799 -17.6699937219 5.668478161
-10.113256799 5.0373562781 5.493028161
17.251703201 5.6312462781 45.477608161
21.253703201 5.5848762781 3.759248161
24.221703201 52.3298062781 3.841968161
-10.609596799 -23.3188937219 48.309708161
25.381903201 25.6866062781 50.353808161
-10.498296799 30.4618062781 4.274978161
17.228803201 7.8055562781 47.468408161
25.472103201 25.1928062781 93.059908161
22.192803201 7.0303662781 4.405808161
-11.342196799 -17.5032937219 2.952118161
18.896403201 -16.3626937219 46.948308161
-9.472216799 -17.4943937219 -43.782291839
-17.195596799 -21.0429937219 49.902208161
-15.895296799 31.2725062781 5.715868161
25.412303201 31.4672062781 4.327848161
22.561203201 4.3298562781 3.375308161
-11.159496799 -47.3097937219 46.642808161
-14.868196799 29.6479062781 3.032658161
87.090003201 6.7388162781 4.042268161
58.009703201 6.7902962781 1.419838161
23.261603201 -20.0831937219 49.540108161
-15.593996799 26.7046062781 46.518008161
22.804303201 4.8204262781 6.387008161
23.860803201 49.5098062781 5.133158161
23.169103201 -17.2316937219 5.997978161
-16.644996799 31.1980062781 1.113678161
25.524103201 -18.8236937219 6.442408161
-8.821356799 4.4054562781 2.924948161
31.359403201 31.1867062781 44.606808161
28.822403201 0.1244872781 89.471908161
-34.548496799 -41.2852937219 44.779308161
-3.618976799 47.5345062781 50.461208161
60.447403201 -18.6253937219 1.410758161
68.784303201 71.7902062781 47.857008161
-1.125837799 1.8013362781 49.122308161
-1.531056799 -19.8201937219 0.403372161
-6.060276799 -39.7213937219 -40.334191839
-0.594777799 7.7820362781 5.352068161
64.552103201 48.6790062781 44.836908161
-8.492376799 50.2873062781 2.992038161
33.085703201 -39.8653937219 45.045408161
-8.244276799 50.7175062781 6.639708161
-7.189636799 3.8166062781 0.470263161
-5.145806799 47.8320062781 48.215108161
28.625203201 29.9948062781 45.065508161
32.739403201 2.0366662781 46.012808161
31.848203201 24.3538062781 45.278708161
31.073503201 55.0467062781 48.550908161
30.710303201 25.6659062781 6.466798161
-7.865176799 -23.1202937219 5.072338161
27.077603201 7.4738762781 -39.201691839
-2.762886799 48.9433062781 5.134588161
26.692403201 30.7722062781 3.530158161
-6.626576799 5.1486962781 45.907608161
30.781603201 30.6438062781 5.689898161
-35.173696799 6.7155162781 46.676808161
-4.952396799 24.5439062781 50.950508161
-7.316836799 0.6005492781 45.767008161
64.064303201 30.4960062781 48.817308161
-4.351256799 30.5630062781 45.754808161
26.895303201 26.0815062781 46.198408161
-1.950896799 30.4013062781 49.553508161
-7.593146799 5.6874062781 2.814398161
65.471603201 1.7101762781 46.463508161
31.676403201 3.4396662781 46.248508161
-7.413016799 4.1909762781 48.468208161
28.251903201 24.6985062781 5.025568161
-7.381476799 -42.9018937219 5.730658161
-4.287246799 26.6008062781 1.038458161
27.079803201 53.6251062781 50.948608161
-40.997696799 50.4443062781 92.151608161
-5.437446799 49.5430062781 48.627308161
-38.140596799 1.4309462781 3.528148161
-37.338596799 28.4733062781 3.045458161
-6.013826799 3.4598862781 46.135508161
28.974503201 2.3082762781 5.820518161
28.442003201 4.5957762781 -41.661891839
-36.255296799 28.7359062781 4.342398161
-3.817976799 26.5069062781 4.641438161
-40.339096799 -18.4965937219 51.089608161
28.099903201 3.5867062781 51.167708161
-4.556756799 5.5064862781 5.645058161
-3.780776799 30.0425062781 2.868478161
32.389703201 53.7313062781 47.748908161
-4.614706799 -18.6997937219 48.278908161
-3.475086799 28.1001062781 4.867688161
-32.906196799 8.7617862781 0.073803161
34.460403201 13.7650062781 46.615608161
70.904203201 13.0316062781 7.028528161
34.971903201 12.2157062781 45.513108161
36.121303201 8.2542262781 6.845798161
0.730683201 -14.1771937219 45.957308161
38.223303201 34.0011062781 2.903498161
0.460628201 9.3309062781 51.778308161
41.483103201 -32.1480937219 46.571708161
2.187033201 8.7140262781 94.180608161
36.049303201 33.7651062781 -38.370691839
35.494303201 11.0832062781 1.820138161
35.555503201 11.7141062781 48.334808161
3.193523201 32.3393062781 2.439448161
-33.840496799 13.7716062781 6.669688161
6.176683201 61.7270062781 47.166308161
36.198803201 -10.0457637219 0.980118161
36.223903201 8.2726662781 -42.914991839
38.132503201 -9.5868537219 -37.825491839
-33.959196799 8.0407862781 2.665438161
-29.113896799 -32.0258937219 46.355308161
35.022903201 -34.1826937219 48.274808161
5.450143201 10.2694062781 47.267008161
36.301403201 -9.6157737219 2.998928161
35.255903201 32.2087062781 48.718308161
71.418403201 11.5902062781 47.067608161
35.468203201 33.8531062781 49.227408161
2.994643201 36.4465062781 -39.049691839
5.970983201 38.1083062781 4.844268161
2.333923201 35.8402062781 45.513708161
4.602023201 -33.6174937219 46.209008161
49.200703201 15.6237062781 4.482968161
16.636103201 -13.3955937219 45.082308161
13.696003201 35.5593062781 1.351278161
-18.045396799 10.5829062781 2.089198161
9.861803201 15.8256062781 -43.389291839
16.732703201 -13.7779937219 4.963978161
-19.182396799 39.2360062781 0.052548161
48.286103201 34.1155062781 48.594008161
9.620613201 38.9481062781 6.989108161
-22.484196799 55.6598062781 2.217248161
16.721803201 13.3796062781 1.661768161
8.796633201 -8.1161537219 4.058618161
-21.701696799 -13.2173937219 45.016108161
11.430403201 59.2114062781 5.019168161
46.308303201 34.0548062781 4.484608161
9.214983201 -10.1269937219 48.101808161
-22.458496799 35.4824062781 1.616288161
48.271603201 8.2842062781 46.558408161
11.556203201 -32.2738937219 3.842028161
44.146103201 32.1501062781 44.945508161
-20.299596799 8.1513962781 44.900808161
10.957303201 32.9887062781 3.291818161
12.350003201 14.1970062781 4.937698161
49.546903201 58.3928062781 5.227498161
49.512903201 9.1874262781 4.589278161
-18.059596799 9.2662162781 -41.458191839
14.956203201 35.9315062781 4.081288161
-17.960496799 -35.4229937219 2.987248161
47.086803201 61.6526062781 3.058608161
49.929903201 38.5387062781 46.339408161
-20.205096799 37.5023062781 4.297508161
47.095703201 37.0383062781 1.620238161
9.480813201 33.6682062781 2.918428161
-24.279996799 15.2462062781 47.358508161
14.552803201 35.1303062781 47.196208161
47.792103201 62.4184062781 5.881948161
50.932103201 -11.7990937219 4.815108161
14.369503201 -32.7109937219 47.418608161
12.693503201 -14.7296937219 -43.652391839
13.973403201 -10.6400937219 0.369082161
-23.293296799 11.0660062781 44.750008161
15.424403201 37.6072062781 -44.176691839
14.671903201 33.3459062781 2.748558161
11.038303201 12.8081062781 0.721318161
-10.841596799 8.7798962781 45.439408161
-9.244026799 7.9588962781 1.235358161
20.341303201 9.5270962781 4.634358161
19.999703201 8.6367362781 47.457408161
52.596203201 -9.5577337219 89.939908161
-49.319596799 -38.2901937219 50.416208161
52.875503201 12.0769062781 6.891438161
-16.470596799 -33.7413937219 51.494608161
-16.782396799 -38.3715937219 50.789108161
51.783903201 -13.0306937219 47.978908161
17.400103201 15.0133062781 46.529108161
-0.446628899 -14.5709937219 44.647408161
60.474503201 8.8644962781 5.546068161
34.174003201 -11.6865937219 2.647128161
-0.406036699 -10.0899637219 49.769408161
63.996103201 11.0836062781 7.262408161
-36.550596799 36.2065062781 51.626508161
32.022903201 9.3774062781 51.689408161
34.307203201 10.4591062781 6.112288161
32.976803201 62.3016062781 46.425108161
-4.525716799 -12.3960937219 46.306708161
66.802603201 -8.4669237219 6.993338161
-0.584376799 -11.5187937219 50.793708161
-8.541986799 8.1175362781 2.681238161
30.611403201 9.7897062781 46.289808161
-4.737656799 33.9504062781 3.238348161
-1.073177799 8.9572462781 6.405438161
32.521103201 14.6797062781 -39.318491839
31.611403201 34.9094062781 90.374208161
27.925403201 -14.6580937219 5.468598161
31.371403201 -9.7803237219 6.458508161
-2.114466799 33.3458062781 46.744208161
-1.711366799 11.4896062781 2.728718161
30.916403201 -37.1184937219 49.100908161
31.180903201 32.9567062781 3.408938161
28.294603201 56.9993062781 3.764208161
-3.153746799 12.4206062781 47.063208161
30.678703201 57.3476062781 6.135958161
31.731903201 11.7954062781 48.587008161
33.586903201 8.6845362781 90.803108161
-0.844209799 9.5155462781 4.911488161
30.098403201 11.7839062781 48.513508161
-1.887096799 12.8035062781 49.900308161
-1.916286799 10.1674062781 48.433208161
-4.215656799 8.5715262781 0.656358161
-41.132496799 8.3740662781 2.524218161
28.503403201 -15.8000937219 -43.418891839
31.366603201 -12.7268937219 -37.142991839
-5.458816799 9.3007762781 51.406008161
30.481203201 8.0150462781 6.749148161
7.245143201 -25.6014937219 -43.504791839
5.982393201 46.6975062781 45.858708161
74.530903201 -53.9140937219 4.858338161
-27.581096799 -5.9544037219 3.610968161
5.976983201 17.9869062781 44.707808161
38.451903201 44.5318062781 0.599078161
37.285203201 22.9095062781 47.179908161
7.774023201 17.7427062781 44.865108161
40.502603201 19.2930062781 2.684248161
4.244433201 46.2466062781 1.378868161
-27.136296799 -3.2568537219 44.645308161
40.055303201 43.6210062781 0.226564161
8.198263201 -7.3130237219 1.216898161
3.747533201 44.9527062781 2.388148161
41.206703201 19.1388062781 1.189878161
42.596003201 -29.8611937219 -38.237691839
8.560223201 -4.3622537219 44.949108161
5.002423201 -5.5399737219 47.967408161
46.162103201 42.2095062781 3.447478161
45.768403201 18.9685062781 1.620888161
15.739203201 21.0706062781 2.610028161
12.401003201 -3.9179637219 2.765888161
14.643703201 -28.8896937219 1.059868161
12.498903201 40.1865062781 0.961908161
49.880803201 19.6603062781 3.838738161
11.449403201 20.7427062781 46.093608161
14.089403201 -3.9105737219 2.572568161
10.095003201 -29.1116937219 47.425708161
-19.466496799 18.2179062781 47.499208161
10.163103201 -3.0788237219 -39.949691839
44.181503201 19.6223062781 46.260908161
-24.547096799 21.3209062781 47.523308161
12.230603201 16.9779062781 3.915768161
14.132803201 16.8087062781 47.921508161
11.714403201 -3.8154337219 49.138308161
-20.899396799 -30.7044937219 49.793908161
-56.202196799 -51.7272937219 50.447208161
45.928103201 21.2080062781 47.766208161
14.813003201 20.7177062781 1.196308161
-19.692596799 19.7643062781 5.528388161
-24.108096799 66.2212062781 49.027108161
13.699303201 18.2351062781 6.235458161
9.164213201 -4.0511437219 48.287608161
-24.979296799 64.3605062781 47.204908161
-24.667596799 -29.5528937219 5.739908161
16.065103201 -29.6454937219 1.823558161
10.706003201 -7.2429537219 6.218028161
11.659003201 18.0828062781 44.798508161
-52.282396799 40.1817062781 1.199518161
49.869903201 -5.2116437219 6.636398161
9.090753201 -7.5474737219 5.567668161
13.825203201 44.8863062781 50.853908161
15.399203201 -3.0633037219 6.682638161
-18.227196799 -4.4229437219 0.431442161
51.079403201 18.4663062781 3.341728161
10.994203201 -7.3666837219 44.602908161
10.881703201 17.8041062781 7.046688161
-20.993796799 41.7954062781 0.145001161
112.514003201 -28.7843937219 7.031258161
47.346203201 16.0332062781 47.174708161
46.327203201 -31.5208937219 5.343418161
60.156303201 -0.2223117219 48.422608161
21.083603201 -1.4611637219 -37.739991839
18.289103201 -6.1626137219 7.219498161
25.552803201 42.1223062781 2.272808161
56.096703201 22.3431062781 44.928708161
-9.948706799 23.2582062781 45.350908161
53.438803201 66.5680062781 46.169808161
-10.391196799 -7.4295737219 51.101208161
-14.500596799 -5.6720537219 6.690258161
52.499003201 15.9304062781 45.146208161
51.847203201 43.0629062781 1.706308161
26.047503201 23.0313062781 45.440108161
-3.841816799 17.3071062781 0.278453161
-35.618396799 -31.6016937219 45.237708161
27.527303201 -7.0281637219 44.980008161
-8.036146799 -26.0323937219 1.986028161
-6.371036799 -7.0053937219 46.693808161
63.509803201 63.6573062781 45.251308161
33.072703201 40.2499062781 2.686668161
32.105003201 21.1629062781 1.232238161
-5.745846799 -28.4031937219 4.460408161
30.103703201 -6.6161237219 46.582408161
-5.880046799 -4.3203837219 1.139888161
27.432403201 41.9003062781 46.120708161
30.137703201 18.8556062781 -43.074791839
30.741003201 -49.4306937219 1.986358161
64.176103201 44.2667062781 4.594528161
62.582703201 -2.6506437219 4.192908161
63.542003201 22.2633062781 1.478968161
-5.410286799 -1.9427037219 5.626538161
-6.487216799 21.7359062781 2.788258161
61.199203201 19.6130062781 49.350708161
-7.633566799 46.9113062781 47.165008161
-4.930686799 47.0585062781 5.295488161
63.223103201 42.1683062781 47.125608161
-41.752196799 21.2743062781 5.549338161
30.046503201 20.5955062781 6.570958161
28.408203201 23.6477062781 46.794408161
66.384303201 -0.6322767219 -37.299591839
-37.952396799 23.5623062781 48.769408161
0.005384201 -17.5954937219 -29.861991839
11.851703201 29.6747062781 12.838808161
81.896103201 6.2185562781 58.520708161
-53.753596799 49.3719062781 10.011908161
82.816903201 49.9914062781 -35.764791839
-18.693896799 23.9705062781 55.013708161
-17.629396799 -22.3143937219 9.825008161
16.783003201 -20.2855937219 13.579908161
85.994603201 4.2247362781 8.412948161
55.389003201 25.6972062781 13.447208161
23.238403201 0.3137322781 9.309128161
54.613903201 0.4484172781 58.421708161
25.559703201 3.8607862781 52.722708161
19.274903201 -19.9069937219 8.186608161
21.989103201 -22.6517937219 8.674088161
-16.784696799 2.0677062781 12.723708161
24.588703201 72.5249062781 54.377708161
-10.069926799 26.7042062781 9.155998161
-10.720396799 1.5008762781 8.172898161
55.392203201 0.4568872781 7.422478161
19.505303201 -44.7875937219 9.865908161
19.086903201 -20.0353937219 55.922008161
51.870303201 0.7083152781 11.274708161
68.649303201 -17.3280937219 11.355708161
-0.879579799 48.6487062781 -32.885491839
32.586603201 50.6891062781 11.502008161
-2.736706799 7.5350662781 56.517408161
28.531303201 51.6212062781 8.206128161
-7.297926799 23.8018062781 52.487308161
-8.163086799 24.4234062781 54.181108161
65.561003201 -21.0700937219 7.948438161
34.000003201 30.2025062781 52.843408161
-4.267776799 27.6350062781 -35.601391839
-39.379996799 0.9892962781 9.440548161
28.815303201 -23.5927937219 7.900068161
-0.836544799 4.5531262781 8.388818161
31.815703201 28.1968062781 7.977398161
27.802203201 25.2190062781 8.679108161
27.185703201 3.0377762781 8.121998161
61.918603201 29.5910062781 52.554708161
-1.328444799 28.6352062781 56.177008161
-6.685106799 24.9550062781 10.305608161
-3.727466799 2.1006662781 9.301678161
32.259803201 25.2057062781 -35.285091839
67.247903201 3.0094262781 8.127018161
33.869903201 54.8314062781 9.958308161
26.898903201 28.1910062781 9.047778161
0.778883201 -11.6615937219 10.546908161
0.433489201 14.4050062781 12.195008161
1.025943201 -15.2445937219 57.438608161
-33.707396799 9.2471162781 14.601508161
0.319885201 10.2698062781 53.320508161
0.742493201 33.2985062781 56.151308161
0.074408201 13.4079062781 13.718208161
34.761103201 -8.5073437219 -35.162791839
35.694203201 35.9218062781 14.495208161
36.030403201 -12.8000937219 11.356008161
35.314703201 -33.6917937219 10.684308161
1.656553201 34.9807062781 9.345328161
34.455303201 -12.6130937219 11.940308161
1.606563201 -14.1716937219 54.487108161
16.157403201 -10.7837937219 53.790808161
49.271903201 84.6329062781 8.234368161
85.053803201 -8.0807037219 55.310908161
50.580203201 13.7903062781 -33.600591839
49.115803201 13.4427062781 54.473708161
21.878003201 -32.0264937219 59.053008161
54.012603201 -35.3093937219 10.304808161
54.285503201 -10.4789937219 53.642808161
22.179903201 -10.4413937219 11.276808161
-14.140596799 -8.8352237219 9.945108161
17.345103201 15.5476062781 13.536408161
17.319803201 14.2873062781 54.225908161
54.044503201 14.6737062781 11.570108161
24.943503201 38.0891062781 10.801308161
87.595203201 33.2722062781 53.212008161
57.641503201 14.6619062781 8.516168161
20.954703201 13.6856062781 12.428108161
19.286703201 12.8523062781 11.782208161
-15.511196799 37.7225062781 54.823908161
21.424403201 14.8787062781 55.724208161
-9.852336799 -9.9044237219 52.229008161
21.786303201 37.6471062781 9.700108161
21.081603201 37.9276062781 14.027708161
30.227703201 -34.0977937219 57.247708161
-2.605466799 -37.5088937219 53.345608161
66.779303201 13.9908062781 -36.605091839
33.721903201 13.0103062781 52.310208161
-1.741856799 -10.9617937219 58.321808161
-3.716346799 34.2824062781 12.086608161
31.734903201 -10.3041937219 12.503008161
-2.231806799 38.1243062781 -33.391091839
-1.014388799 11.7277062781 55.113308161
-2.922036799 13.9373062781 -35.050791839
30.786203201 35.0555062781 8.961838161
32.702803201 34.9572062781 14.203008161
31.440803201 32.1301062781 -36.170091839
34.002603201 -39.4642937219 58.535108161
30.367503201 -14.5464937219 9.508448161
-0.130790799 -35.8289937219 13.495008161
-0.292711299 11.8757062781 53.463508161
62.298903201 -11.8333937219 55.396508161
-3.770126799 32.7785062781 11.311908161
-35.336096799 33.7013062781 100.203508161
-3.638116799 35.8008062781 -32.816991839
31.767103201 9.9325062781 13.725908161
29.303103201 36.5797062781 55.734208161
-0.667933799 62.3071062781 10.777108161
29.655103201 32.0318062781 8.135508161
32.518803201 -15.3027937219 13.451708161
-1.295766799 34.2500062781 9.366048161
32.064003201 -10.9812937219 11.041208161
66.589503201 9.4970062781 56.705308161
30.957003201 -8.6627637219 56.777008161
30.689603201 -11.1913937219 -34.620991839
-3.635006799 -8.3800037219 10.468608161
-0.343965769 -32.7607937219 7.855898161
-0.228900799 56.7054062781 54.517908161
37.233903201 -5.3841037219 7.449028161
-17.394696799 18.3691062781 12.152508161
49.630103201 -4.0889637219 8.195408161
16.635603201 -4.2377437219 9.227378161
50.084903201 -26.0595937219 13.366208161
13.362903201 63.4538062781 54.592508161
17.120603201 16.5930062781 56.344608161
16.818803201 20.4056062781 14.407308161
16.646803201 44.9131062781 10.190808161
14.499003201 45.9888062781 58.927008161
50.517703201 -0.5924237219 -30.690391839
15.052203201 -7.7445737219 -35.089891839
50.751503201 19.5255062781 11.012408161
16.421103201 17.3236062781 13.411608161
10.777003201 -7.4727737219 7.838798161
19.554703201 16.4677062781 52.019108161
20.667103201 -2.9257637219 14.709008161
51.777603201 -4.7858537219 13.807208161
18.731103201 15.9038062781 56.845308161
23.786403201 46.9935062781 13.913108161
25.200703201 20.8701062781 58.907608161
23.581803201 21.5628062781 14.392008161
-8.972896799 -7.2548937219 8.965808161
-14.465696799 -24.4533937219 57.091008161
18.526703201 -0.5764597219 56.008108161
57.160403201 -31.2464937219 52.341808161
18.800503201 -5.4603037219 14.143808161
23.875803201 -4.7285437219 97.127208161
18.075403201 16.8823062781 8.705048161
53.281103201 -7.2495137219 14.044208161
18.085203201 42.3325062781 8.789538161
56.790903201 -3.7459137219 8.232578161
18.622003201 45.5307062781 12.612108161
19.675303201 -24.9691937219 54.252708161
-13.319196799 -6.5817437219 7.851468161
-44.544196799 20.5738062781 57.379708161
-11.323196799 22.0264062781 12.774808161
-14.411796799 -2.4742237219 57.830108161
21.313303201 22.0369062781 12.373908161
-14.741996799 22.8299062781 8.018478161
24.257403201 -0.3401599219 -32.238291839
53.520003201 20.3626062781 11.992308161
18.304703201 21.4520062781 10.818708161
58.141903201 -29.4444937219 13.470908161
-10.251526799 17.3192062781 52.355008161
-15.964096799 -29.8744937219 -33.162291839
55.557503201 -49.4118937219 10.486708161
22.175403201 -5.1451537219 58.199708161
-13.427796799 17.9041062781 9.505378161
56.743903201 -7.0689537219 57.977008161
-13.573796799 -0.3419567219 11.134508161
55.352703201 19.0759062781 52.725008161
21.154203201 41.2664062781 12.672608161
21.695403201 42.9055062781 -32.464191839
22.360903201 68.7664062781 53.937408161
21.720703201 -29.6037937219 55.381808161
-11.218896799 -3.8881137219 54.235108161
-14.486096799 20.5585062781 10.339808161
54.103303201 -4.4042037219 9.311628161
23.103803201 -5.0071037219 10.932108161
51.737003201 -1.7845937219 58.230308161
-11.105096799 -4.4465537219 57.098508161
24.430603201 -29.5573937219 -32.569991839
21.934503201 16.3883062781 11.666808161
19.864003201 -7.3534837219 53.840208161
18.677203201 18.9851062781 12.643008161
89.778403201 20.5424062781 11.931608161
23.232603201 17.0228062781 55.388808161
24.185803201 -2.4430837219 9.927708161
19.129503201 17.8344062781 9.915008161
19.528003201 17.5677062781 12.707708161
-44.270896799 21.8006062781 56.143508161
58.036003201 16.4657062781 56.931908161
-9.314876799 -27.6997937219 9.254008161
58.073003201 40.0740062781 9.415698161
32.653603201 15.9687062781 14.698008161
-7.996236799 -28.3368937219 54.502008161
65.232603201 -3.1340437219 59.141808161
-6.274756799 -1.2116257219 52.832808161
-34.999796799 -24.5221937219 52.088408161
33.188803201 40.3802062781 13.175508161
-8.217236799 -1.2236527219 12.100708161
30.335303201 41.3924062781 13.551308161
25.864203201 -26.5410937219 57.150908161
61.644403201 23.2516062781 55.499808161
29.505803201 46.6765062781 9.404628161
-2.861566799 -26.4045937219 52.049208161
65.882003201 -28.5429937219 58.458508161
28.777003201 19.2034062781 11.389708161
-0.020367799 -31.3674937219 -32.403091839
61.012103201 -1.7052937219 13.828608161
26.391503201 -0.9832777219 53.605608161
-35.671696799 18.5014062781 58.701508161
65.842703201 16.2734062781 13.292208161
-0.189312799 -7.3198237219 10.445308161
28.141903201 -3.5550337219 10.180508161
-5.389846799 -0.3265367219 55.299308161
-32.265496799 4.9856762781 21.845608161
36.361903201 30.4062062781 60.313208161
51.486403201 24.0949062781 18.631508161
49.706303201 52.1652062781 19.906408161
16.876703201 28.4156062781 20.934408161
46.487803201 30.2904062781 21.945108161
13.912403201 -47.3094937219 21.461308161
-19.284896799 7.8665962781 19.793908161
14.503003201 25.8478062781 21.251508161
-18.766296799 24.4375062781 66.338408161
14.904103201 6.1465162781 63.578708161
-20.192496799 3.0207962781 19.890308161
13.671403201 28.6866062781 20.074408161
47.709203201 5.3529062781 -22.884791839
88.272103201 4.4814962781 21.961808161
51.746103201 6.4423362781 -22.822591839
-12.804196799 24.5625062781 14.874608161
19.093203201 6.1098762781 66.775508161
56.854803201 -41.5003937219 16.542608161
22.160703201 -23.2674937219 18.089808161
52.942003201 6.7722162781 17.926708161
24.873303201 31.5557062781 22.139908161
-15.537096799 25.7713062781 15.819508161
18.504103201 5.3479862781 65.316408161
53.978603201 24.5405062781 16.712708161
18.062503201 27.2051062781 65.768508161
-50.672796799 48.4529062781 64.510508161
18.838903201 47.7382062781 15.108508161
28.756203201 30.8927062781 -23.222491839
-34.987396799 7.7656162781 20.970808161
27.885003201 6.4142862781 62.661508161
27.808203201 30.8013062781 16.382508161
-4.482226799 30.8008062781 64.642408161
28.201103201 7.4082162781 63.980808161
1.861073201 -12.4962937219 61.896208161
0.341004201 8.1345662781 15.720508161
15.886803201 32.9323062781 22.189308161
-17.949096799 8.0127362781 -23.389091839
16.963103201 33.4857062781 20.899708161
16.305903201 13.6613062781 107.821508161
80.926003201 8.9855462781 19.812208161
-18.821296799 10.9461062781 -23.134491839
16.782603201 37.0225062781 20.489108161
-18.023996799 34.4598062781 19.530808161
-17.552196799 38.7818062781 64.107908161
48.926603201 -36.6815937219 19.899508161
49.026403201 31.9146062781 21.385608161
14.034703201 9.8489062781 21.675408161
-20.584596799 33.0102062781 20.197008161
16.766103201 32.5735062781 64.069908161
15.179303201 56.9979062781 18.839808161
17.195503201 12.1330062781 18.874508161
-14.561996799 -14.7465937219 66.509908161
21.287903201 10.1164062781 -22.348391839
55.651403201 13.0706062781 60.541308161
-10.492096799 10.8331062781 20.888508161
-43.145296799 34.1809062781 60.114908161
25.750303201 9.3759662781 61.458208161
-9.405346799 33.5103062781 19.906608161
54.586603201 14.3345062781 16.583108161
21.616303201 58.7720062781 62.974008161
22.466703201 -57.3334937219 18.347008161
57.552203201 13.6679062781 21.622008161
21.101903201 -9.9592337219 64.404808161
58.453403201 14.7433062781 63.712808161
21.875103201 14.3143062781 -27.585391839
-14.551896799 33.9680062781 -28.101491839
52.837303201 57.5294062781 21.787508161
21.750703201 12.8682062781 65.537608161
-15.787396799 39.0002062781 19.186208161
-15.070196799 9.3166062781 17.833308161
20.698103201 11.7013062781 -22.790391839
18.173703201 -9.5136337219 20.596108161
25.094103201 11.9026062781 18.001208161
-14.101396799 -13.8354937219 19.275508161
18.972503201 -11.2845937219 18.555508161
-12.684796799 14.5157062781 21.264208161
21.224403201 -36.0947937219 61.213908161
55.002603201 32.3344062781 -27.878791839
22.720003201 34.2767062781 17.316608161
22.089703201 -8.3458037219 -24.855391839
23.270103201 9.3534062781 20.060408161
-15.198796799 37.7334062781 17.945808161
24.578503201 13.5472062781 20.251208161
53.419603201 11.6733062781 65.987408161
60.098503201 57.9565062781 21.510508161
55.360103201 8.3914962781 18.393408161
-10.964396799 15.3822062781 -23.756791839
56.946903201 32.3649062781 17.332708161
17.470903201 36.7255062781 62.129608161
18.398803201 12.6438062781 20.311808161
22.072103201 12.4723062781 19.362308161
-11.152896799 -15.5661937219 65.910308161
-14.805896799 -9.9223137219 19.495208161
19.911603201 -12.4650937219 17.823108161
21.828103201 9.7488562781 60.714308161
-12.131096799 9.4450062781 18.775408161
57.800503201 36.0666062781 20.373508161
22.807103201 9.8789062781 21.682008161
-9.264676799 12.0014062781 -28.232791839
19.962303201 -13.3977937219 -23.711591839
-9.995546799 -60.6432937219 17.158608161
-10.507396799 36.5972062781 18.909808161
20.129103201 -32.1344937219 -29.444191839
25.639203201 -13.6179937219 -26.047291839
51.775103201 14.8103062781 62.429608161
30.634903201 12.4212062781 22.214308161
27.128903201 9.8815062781 17.901808161
-4.866466799 35.8259062781 17.152908161
26.118203201 8.7751162781 65.591508161
62.579403201 -14.5577937219 63.670508161
26.537003201 12.0919062781 66.092408161
65.279103201 32.1673062781 20.257708161
-1.261530799 -12.7351937219 16.066008161
-4.670276799 8.1294962781 18.788508161
30.242603201 8.0742162781 66.295808161
31.345803201 15.3404062781 19.663608161
26.965703201 12.4622062781 19.897808161
-7.180246799 -8.2389537219 63.378308161
-4.224136799 58.8109062781 -25.874591839
-4.584166799 12.9346062781 -25.466591839
-40.208396799 -14.6748937219 22.045808161
-8.334886799 -9.9895637219 20.887408161
-1.270435799 34.4094062781 21.507408161
31.421603201 -12.9919937219 21.856508161
-39.591296799 -10.9525937219 21.899308161
28.665503201 -10.6176937219 20.315508161
27.579103201 8.5339962781 65.257108161
-4.206256799 9.7493862781 -23.343591839
63.292903201 -8.9812737219 65.984508161
27.361703201 -37.4285937219 16.016108161
-2.222296799 13.5154062781 22.158108161
-6.986896799 14.6178062781 20.396808161
27.874303201 -12.3712937219 61.671108161
26.983903201 -35.7816937219 15.709908161
-6.154716799 11.8109062781 21.253508161
-7.719846799 -12.2365937219 63.013008161
-2.489756799 15.0496062781 21.379608161
63.088203201 -13.6774937219 20.819408161
-2.430086799 12.1992062781 20.940908161
-1.988666799 11.1539062781 18.105208161
64.445803201 -15.1332937219 16.158408161
-4.439396799 9.8961062781 108.614508161
6.071243201 -6.4302437219 21.238308161
51.192403201 23.6625062781 -23.939891839
50.537203201 22.6906062781 -25.262391839
13.828103201 20.9805062781 20.180808161
13.952703201 45.3108062781 17.514308161
16.703403201 -1.5099837219 16.436208161
-19.596896799 45.6304062781 19.060808161
48.514303201 43.9001062781 18.634108161
-18.220796799 -3.0926937219 16.152008161
16.280503201 66.8044062781 61.561108161
14.941403201 45.6486062781 16.036608161
-17.345996799 -1.9320837219 65.460108161
47.640703201 -47.9797937219 18.185308161
53.034403201 -0.0529497219 62.641408161
21.091603201 15.9511062781 16.400908161
-9.999026799 18.0342062781 59.592308161
59.616503201 22.5885062781 14.915508161
20.541003201 23.4927062781 59.915508161
55.841003201 -4.4528837219 59.619508161
18.666003201 21.6641062781 20.284208161
54.265803201 21.2391062781 17.290308161
-16.610496799 45.1138062781 15.380008161
19.809503201 -28.2831937219 59.747508161
22.321503201 -2.7244037219 60.111308161
19.779503201 -30.9330937219 -22.372191839
53.355103201 45.7082062781 62.962708161
20.658303201 -6.8652537219 17.579008161
-17.063196799 -1.2496237219 -26.637691839
21.770303201 18.2089062781 18.412508161
17.353203201 22.9714062781 -29.450991839
20.848903201 45.7050062781 15.846508161
17.472903201 21.1577062781 19.105608161
-14.761496799 23.0318062781 -24.779591839
19.265803201 -2.9443637219 15.803508161
22.337203201 -25.1578937219 -26.072991839
-13.385496799 43.6639062781 17.970908161
18.522403201 -0.5024287219 -23.393091839
-47.116196799 45.0909062781 17.205808161
26.566203201 -5.7302637219 59.928408161
26.349503201 17.0044062781 18.706508161
38.299703201 5.1022062781 24.118708161
73.474103201 53.4769062781 27.027508161
6.762923201 28.3765062781 25.997008161
3.108523201 73.7453062781 -17.940291839
-29.198896799 5.3357262781 69.963608161
2.594223201 3.4673062781 69.656908161
37.019603201 29.7108062781 67.849208161
39.642503201 25.8774062781 28.445808161
39.819703201 4.6041062781 27.007408161
6.861743201 -44.9223937219 28.954908161
4.504153201 -20.4354937219 27.520808161
1.107853201 52.6326062781 23.234708161
39.506303201 -16.5281937219 25.270508161
0.327703201 -18.8088937219 72.296808161
8.128233201 24.6145062781 -15.518891839
4.038673201 -20.6656937219 74.021808161
0.470379201 6.5153062781 26.708208161
6.757323201 -41.3307937219 69.456908161
36.246303201 25.8144062781 72.217408161
-32.437296799 -42.5506937219 28.138708161
0.856893201 31.0529062781 -15.268091839
38.620303201 3.3040562781 -20.909391839
36.877003201 48.0542062781 28.823208161
37.026103201 3.3738362781 28.488108161
39.059803201 25.4181062781 26.859108161
36.661903201 6.1516162781 -15.244491839
4.152683201 -22.3746937219 -14.985591839
-31.933896799 -15.9378937219 23.610908161
-33.238096799 -20.0636937219 24.342708161
6.945713201 7.7061462781 70.428408161
36.330503201 7.4023762781 26.688008161
36.328503201 -65.4712937219 70.979808161
0.776053201 29.2966062781 -15.142191839
-29.997996799 0.5096342781 72.593208161
-31.366696799 53.7821062781 27.563708161
42.341603201 27.6600062781 -60.594391839
70.835903201 28.9504062781 24.753908161
12.660703201 48.9939062781 22.337408161
-18.229896799 -17.6676937219 29.347108161
16.298603201 5.1927662781 22.610708161
78.113003201 -16.1018937219 -18.769891839
13.987503201 2.4234262781 67.427508161
49.049903201 5.4062062781 -21.481491839
12.236903201 -18.9615937219 -20.292991839
10.496203201 7.1792762781 28.502408161
82.307703201 51.5462062781 22.901008161
16.550603201 27.2029062781 28.356208161
47.912203201 -15.9846937219 71.722508161
47.869503201 7.5100662781 73.529108161
16.029703201 24.2795062781 23.495508161
50.765303201 31.6425062781 -15.619391839
44.421203201 27.0228062781 28.286408161
-18.122996799 54.6537062781 25.971708161
16.887703201 2.6075162781 -17.694591839
48.451403201 50.8832062781 -17.611591839
11.283103201 5.6975762781 27.500808161
-54.682696799 30.4122062781 24.130008161
15.477203201 25.7776062781 -17.132191839
50.071903201 26.0059062781 67.268208161
84.072003201 31.5960062781 -19.781291839
9.938403201 25.3732062781 28.796608161
16.068603201 5.5617762781 26.537108161
15.898303201 76.1527062781 28.313808161
-56.428296799 -16.1862937219 67.973508161
11.849503201 -66.3922937219 -22.080891839
14.864503201 -19.4269937219 70.177508161
-17.806296799 51.3673062781 25.616908161
14.466403201 -18.6396937219 27.416308161
46.548503201 -16.9086937219 26.425108161
81.369103201 30.0946062781 24.861308161
13.901103201 5.1432262781 -19.799091839
45.645203201 -17.5462937219 23.563008161
-19.746496799 27.2019062781 28.698108161
8.613983201 2.1991762781 27.792608161
15.230903201 2.6444062781 25.776108161
-20.578996799 6.8894662781 66.908808161
44.958203201 -16.4747937219 -17.747091839
-21.135296799 30.0029062781 72.244308161
47.511303201 1.2254562781 -20.519791839
16.739603201 3.5683162781 67.103208161
23.738103201 6.9844362781 25.260008161
54.661303201 -19.8776937219 71.546508161
-12.013396799 6.4839962781 26.454308161
21.896403201 31.0380062781 73.964308161
-15.839096799 3.3849662781 23.139608161
-46.192796799 75.3311062781 29.469908161
17.886703201 -15.9542937219 26.137908161
56.218003201 2.7628362781 28.723408161
17.948603201 30.4450062781 29.531208161
22.961203201 27.1678062781 27.744908161
23.864503201 7.2620062781 71.629608161
18.928503201 -18.5432937219 -20.631791839
52.017503201 29.9086062781 23.493208161
51.739103201 28.1699062781 24.060108161
24.236603201 -43.5638937219 -15.602391839
22.378903201 -16.1080937219 27.707508161
59.728003201 5.1361462781 29.139008161
19.942403201 29.2598062781 25.465008161
51.746403201 28.2328062781 27.169308161
-1.831376799 6.4020062781 28.478108161
31.528803201 2.0134162781 27.694208161
30.032403201 2.0764462781 28.848908161
67.363203201 31.0788062781 -21.925791839
32.701103201 5.4139662781 24.833108161
64.693903201 7.7527862781 29.318808161
-2.726776799 31.5860062781 28.331608161
32.721503201 2.1213362781 69.374208161
-0.449297799 31.6477062781 24.036308161
-39.326896799 27.4026062781 29.596408161
-4.021536799 4.8904562781 -15.199391839
27.131703201 28.8860062781 26.537708161
-0.452167799 27.4835062781 -17.483691839
29.341903201 30.2784062781 29.042608161
31.284103201 2.9983562781 70.662908161
33.305303201 50.2421062781 28.108408161
-5.423256799 -18.5294937219 -18.126191839
-2.475256799 -17.0900937219 25.612108161
28.055403201 6.3076762781 -19.412991839
-4.399146799 -18.0280937219 27.556908161
31.343803201 6.4106762781 27.077108161
-2.799246799 4.9799562781 -16.498391839
-7.561066799 3.5744362781 25.504308161
26.988203201 5.0463262781 29.338808161
29.471303201 29.2448062781 24.417808161
-0.619130799 6.1076362781 68.172208161
-35.982196799 3.8582962781 -18.881291839
-0.016111799 26.7522062781 70.062608161
-3.520296799 6.2177562781 -20.395391839
-5.998906799 3.6439962781 26.686908161
-3.140996799 7.4131962781 67.466308161
-0.676205799 6.5972962781 70.027708161
-4.348136799 31.0450062781 72.362408161
34.076903201 53.8793062781 28.206908161
32.000203201 5.9194862781 22.823008161
32.243303201 -20.1111937219 27.400508161
3.770293201 32.1082062781 24.565808161
69.772003201 8.8153462781 -20.815291839
35.939403201 9.9037062781 25.232808161
2.171833201 8.3379762781 69.759208161
0.299632201 33.9760062781 26.395508161
3.187153201 -13.9754937219 -19.029591839
35.101903201 31.6682062781 72.358008161
16.497203201 -32.0202937219 28.302808161
9.255173201 56.2215062781 -20.171691839
15.189103201 12.2009062781 -21.555391839
11.455403201 33.7195062781 22.338408161
-21.360496799 34.0350062781 22.760408161
49.691603201 10.9752062781 27.748508161
15.120503201 32.1498062781 26.256608161
12.145303201 -38.3627937219 -20.700691839
83.720303201 -14.3034937219 25.060708161
12.015403201 56.2792062781 26.810708161
-20.859796799 -13.4928937219 24.495908161
12.749703201 32.9020062781 28.356608161
50.188703201 10.0368062781 -17.990991839
16.618403201 32.1891062781 27.285408161
46.239703201 55.4478062781 29.482108161
19.031403201 -34.1238937219 -16.630391839
-12.123796799 -59.0244937219 24.207208161
-10.687196799 32.7260062781 -21.546191839
20.456803201 34.3143062781 27.136308161
-14.581696799 13.0391062781 26.079808161
57.909503201 60.8773062781 23.283608161
56.587603201 -33.4368937219 69.282108161
23.952303201 12.5976062781 26.445408161
24.260303201 34.2431062781 22.594408161
17.802103201 -14.6705937219 -19.911691839
23.813403201 33.8478062781 28.570008161
-13.835896799 9.7220562781 23.599208161
19.704103201 12.2875062781 -21.477091839
18.345803201 12.1742062781 71.124108161
-11.130896799 -32.2231937219 27.588708161
-45.269896799 -62.2098937219 71.755908161
24.647503201 -32.0831937219 -15.889191839
20.688603201 -8.6567937219 22.432908161
23.425503201 11.2902062781 25.358708161
-12.909196799 -14.5070937219 71.281908161
25.098403201 13.8006062781 -18.631191839
20.926903201 14.9733062781 68.753508161
-15.723196799 -13.0621937219 26.980008161
23.363603201 38.0767062781 29.166308161
22.906203201 -13.9898937219 25.802808161
25.326503201 35.9394062781 25.165808161
24.074603201 35.3993062781 27.879908161
53.887903201 34.8098062781 68.672308161
25.341303201 12.2572062781 73.409508161
58.197803201 60.1721062781 73.969808161
21.169503201 35.2969062781 72.968108161
58.350803201 11.7236062781 23.826708161
20.868703201 -10.4423937219 28.146608161
23.126203201 55.9463062781 24.420708161
-12.711196799 -8.8579337219 28.447408161
18.924903201 33.2852062781 23.467608161
21.507403201 -14.8507937219 24.948108161
52.147003201 9.6039962781 26.362308161
25.164703201 -34.1082937219 24.014408161
86.782203201 -11.7173937219 72.705608161
88.465203201 11.3755062781 25.694008161
24.516803201 32.0802062781 25.968608161
18.306503201 11.2903062781 23.104908161
55.481003201 35.8886062781 -17.896291839
91.198903201 12.6608062781 70.391908161
21.067503201 11.5566062781 23.399208161
19.661103201 -11.2080937219 73.832608161
60.066003201 -14.5624937219 22.807108161
25.501003201 10.5439062781 28.307708161
22.630403201 -12.5463937219 73.718108161
19.506203201 -13.0773937219 28.748808161
-11.014496799 -9.5326437219 26.305908161
23.971003201 38.5621062781 24.839108161
28.942503201 -8.0607037219 27.421208161
27.402703201 -9.0495737219 29.556308161
28.919103201 33.9542062781 29.269708161
-5.883776799 13.0874062781 -15.860191839
29.678003201 -62.4461937219 25.061808161
-1.951556799 32.4058062781 23.716408161
29.728903201 10.0870062781 -18.270091839
61.078303201 14.0933062781 26.574308161
26.710403201 -14.0006937219 -20.492491839
34.290303201 9.3205362781 116.928508161
67.413103201 -14.2817937219 26.483508161
66.906003201 -14.5643937219 -16.479691839
26.601803201 34.7401062781 -19.023491839
67.113803201 32.0330062781 25.320008161
32.765803201 59.0289062781 24.075108161
29.416703201 37.7547062781 27.440208161
-2.785466799 -13.2593937219 27.051308161
26.599603201 -33.9652937219 67.309908161
31.774103201 36.7776062781 68.323008161
29.018803201 38.8968062781 28.984508161
-1.949386799 -37.2710937219 23.234108161
-3.390936799 8.0185362781 -19.935291839
33.976003201 34.9117062781 22.968008161
28.287403201 -32.7155937219 26.138008161
-6.076826799 9.1986362781 23.794008161
-40.979896799 31.9581062781 69.695908161
-3.149906799 -12.3433937219 23.553008161
-6.334536799 -12.4631937219 26.395008161
28.041803201 -35.3112937219 67.456508161
62.660203201 -33.4437937219 -21.389191839
27.877003201 11.0526062781 24.251808161
-8.258066799 -8.7414537219 72.807308161
-7.763486799 13.2182062781 28.153508161
-6.356006799 12.8985062781 26.964108161
38.566903201 -5.1074237219 67.927808161
-28.771096799 22.8315062781 28.372508161
41.296203201 46.3636062781 71.742008161
-26.899896799 -24.5186937219 28.760508161
13.143403201 47.2660062781 23.143408161
14.783903201 -24.4239937219 22.487508161
55.282203201 -7.1940637219 23.457308161
-12.277196799 16.4990062781 27.596208161
22.999303201 89.1233062781 -15.822291839
-14.433796799 -7.3756237219 24.875008161
24.248303201 -1.2855637219 29.160808161
-10.422996799 16.9030062781 27.756408161
19.453403201 65.0511062781 23.894608161
24.639103201 -6.6250937219 29.255408161
-13.066096799 16.4403062781 29.178508161
29.328203201 18.5191062781 26.161508161
-6.833256799 17.5524062781 -15.205591839
-42.192696799 17.2833062781 26.059308161
-7.445006799 39.6196062781 -17.615991839
-41.151196799 -5.2297137219 25.813408161
26.873303201 18.8027062781 28.432708161
27.962503201 -3.0791537219 29.265108161
27.581003201 39.8586062781 28.458808161
63.058503201 18.8542062781 73.440008161
-8.167786799 -4.7907937219 26.903708161
75.562203201 48.0409062781 -7.482551839
2.540013201 2.3368562781 29.692508161
38.232703201 25.1428062781 37.093808161
5.583673201 -22.0770937219 37.007108161
0.292791201 -15.8331937219 30.933708161
4.864523201 1.9882862781 32.330408161
40.872803201 25.0256062781 33.359308161
-26.201696799 24.2963062781 35.999808161
-25.986796799 4.8661262781 -9.053811839
42.751403201 -40.9512937219 -8.115661839
1.241903201 -19.8691937219 31.913608161
40.902803201 24.9055062781 31.606708161
39.204503201 -67.6369937219 32.238308161
7.352973201 -43.6558937219 30.204108161
69.934703201 2.7417362781 -13.813091839
7.289403201 27.2510062781 80.127608161
73.607703201 24.8664062781 34.203108161
7.696713201 -21.9083937219 75.128108161
7.589903201 26.1286062781 -10.589791839
38.142103201 0.4457072781 32.816808161
1.295183201 25.9651062781 32.585508161
4.391233201 4.2032862781 30.685708161
34.683803201 28.2399062781 -13.922491839
73.680103201 0.6590462781 31.046408161
-27.001596799 4.4183062781 33.955208161
-19.954996799 -22.2391937219 36.535608161
-20.182996799 29.0841062781 36.291708161
44.251703201 0.2164502781 -13.052391839
8.858153201 50.8684062781 32.920008161
-23.165296799 7.5311562781 78.441508161
9.297403201 48.8886062781 30.441808161
11.486503201 30.6022062781 32.234808161
9.321433201 -21.7820937219 -10.566791839
46.582703201 2.9091262781 30.706008161
-21.508496799 -45.0489937219 36.704008161
12.260303201 47.6485062781 35.283708161
12.790403201 4.2704862781 36.698608161
-25.193196799 4.2650962781 29.701808161
11.528003201 25.4452062781 35.984108161
15.881903201 2.6288562781 36.131608161
14.039803201 3.4686462781 75.084708161
51.012703201 6.9488962781 -12.456991839
12.591903201 -15.9735937219 81.283608161
13.999503201 -17.1562937219 35.401908161
-20.025696799 4.6485462781 31.609608161
10.421203201 50.9305062781 33.723208161
13.365403201 2.3932062781 33.683608161
-21.469996799 29.0281062781 35.008308161
45.911003201 0.3740812781 77.031008161
10.216503201 26.3332062781 35.297508161
47.907003201 1.6938962781 30.832708161
9.109643201 -18.4679937219 33.968308161
-18.235196799 -20.2633937219 34.108508161
47.102203201 25.2578062781 -56.863791839
15.442503201 5.7744562781 31.131408161
45.804203201 28.9625062781 36.033608161
-24.281596799 4.5143462781 -9.301491839
-25.779296799 2.1450562781 -8.976631839
49.119403201 27.0873062781 33.253308161
16.983103201 5.0777562781 -10.126821839
45.767803201 30.5491062781 36.944608161
14.091803201 -40.5604937219 37.103908161
14.725703201 7.2525362781 -14.509591839
43.228003201 2.8122362781 31.188008161
48.861403201 1.5955462781 32.649608161
47.774803201 -19.5558937219 -11.160391839
46.932803201 4.4687762781 -12.833891839
44.249603201 24.2607062781 33.177108161
11.918903201 3.2604462781 -11.674691839
8.913083201 27.2988062781 36.553708161
12.198103201 -16.9597937219 -9.128131839
-21.232796799 1.6032962781 35.056608161
79.311903201 26.5224062781 30.148208161
-23.259996799 0.2485612781 -7.777771839
49.374903201 26.5699062781 31.646008161
15.838503201 28.1774062781 35.778908161
-8.652796799 29.2372062781 -13.882391839
17.417103201 28.8849062781 -8.399601839
22.766203201 31.2463062781 -12.250491839
-17.132796799 -18.0900937219 30.817008161
20.293903201 -41.1842937219 -14.674091839
19.832903201 -40.4939937219 31.456708161
18.080403201 -20.6512937219 76.907008161
52.508503201 -40.4030937219 31.290908161
20.576003201 5.5242262781 -13.089291839
-44.457896799 3.0087062781 -12.534091839
-9.854736799 6.5859262781 29.974508161
19.638903201 2.3891562781 32.349108161
57.889903201 4.7219462781 32.633808161
22.389903201 5.7860762781 31.821108161
-12.494196799 5.4354262781 30.127408161
-8.905056799 -42.8978937219 -12.460691839
59.460903201 30.9761062781 33.986108161
24.999303201 29.3340062781 78.386308161
57.671003201 3.0398962781 33.600208161
20.919203201 30.3172062781 77.311808161
23.048503201 6.7087062781 74.955008161
-2.298016799 -16.5322937219 29.921708161
26.360603201 74.3868062781 32.336008161
-1.398106799 7.8034262781 31.278008161
-3.944316799 -44.8561937219 30.401208161
32.983703201 -66.5207937219 75.642808161
26.508503201 28.3938062781 33.323308161
25.847403201 31.1859062781 30.922308161
-4.925656799 7.6900062781 32.744908161
65.544503201 -16.7286937219 -11.096091839
28.045303201 54.7030062781 -10.807791839
28.680003201 6.2309462781 -9.506371839
-0.473134799 -20.8624937219 30.222508161
29.631403201 -16.2795937219 79.097708161
29.469403201 -22.0099937219 31.504708161
-6.937516799 29.9976062781 30.935708161
-5.343696799 3.6016662781 -13.279691839
-2.391926799 3.3064562781 31.172108161
28.562803201 -17.4218937219 32.126808161
28.039503201 29.0893062781 -10.872091839
27.918603201 27.2976062781 74.506508161
30.260903201 6.2055062781 31.949308161
-39.577696799 52.1914062781 32.514108161
-3.771836799 29.6757062781 34.783508161
34.341603201 -40.5658937219 -12.152191839
-3.466256799 -18.5232937219 -11.185391839
30.638803201 -17.5528937219 -14.235691839
32.777103201 7.8035662781 77.594208161
29.551803201 -19.1133937219 34.457308161
0.847333201 -14.1970937219 -11.171491839
-26.792996799 14.5985062781 36.720608161
5.826923201 -8.4284537219 35.747708161
70.037903201 33.2296062781 31.515608161
-17.522896799 12.2523062781 36.506408161
11.844303201 -34.4120937219 36.786108161
13.387903201 34.1614062781 -9.152271839
-60.035996799 8.1802962781 -8.492831839
15.420103201 -36.8430937219 -14.755791839
10.754303201 10.1292062781 36.772508161
46.455103201 12.0636062781 79.698708161
15.292503201 7.9511262781 31.392408161
16.507503201 -11.5324937219 34.759408161
12.308803201 -14.3683937219 36.654408161
11.443303201 10.3891062781 -9.199311839
-19.288896799 60.2844062781 35.894608161
-19.273596799 -10.1396737219 -10.242031839
12.319603201 8.3610462781 -11.913291839
50.318503201 32.7242062781 30.219408161
10.581803201 11.8721062781 -8.468161839
48.964203201 62.2593062781 -8.427661839
47.900603201 -11.7488937219 80.786508161
11.601603201 14.6483062781 37.088808161
16.997703201 32.2635062781 31.622408161
-17.475096799 13.8651062781 34.059908161
16.182403201 15.2132062781 36.659208161
-9.052706799 10.6274062781 34.288208161
23.257403201 11.6481062781 -13.733391839
20.981403201 32.0218062781 -12.365391839
24.708503201 10.3300062781 31.192508161
25.615903201 8.1728362781 35.625908161
55.925403201 38.1460062781 31.451908161
59.930103201 8.4047762781 32.451208161
-9.605616799 9.6685562781 80.366508161
24.016803201 8.0557262781 35.342608161
-9.463096799 12.2241062781 30.822108161
23.635303201 9.7646062781 78.858508161
55.898803201 -11.9390937219 35.566908161
57.639803201 33.4540062781 30.249508161
-13.034796799 -37.5572937219 -52.638291839
54.961003201 32.1942062781 30.240008161
22.268903201 -8.6216237219 -14.319691839
17.461803201 13.8228062781 -7.455021839
24.976403201 9.4799862781 -14.768791839
56.633703201 8.4294362781 30.803608161
-9.186146799 -8.6983237219 31.441908161
24.134403201 15.5775062781 30.410508161
-44.063196799 57.3304062781 -11.686491839
-10.572396799 8.2672262781 33.266708161
52.015603201 79.8352062781 -14.593091839
55.023103201 11.5027062781 -7.522891839
18.047503201 -34.6672937219 -9.174831839
-0.021397799 31.8382062781 33.896508161
-34.755896799 -13.3086937219 32.289508161
-40.524196799 -11.9983937219 76.250208161
29.947603201 9.1986362781 -14.173491839
-3.469176799 33.9578062781 31.504908161
33.436503201 33.2913062781 78.204308161
-7.744526799 -15.6430937219 -10.469291839
-7.771226799 -14.1347937219 33.282108161
62.437203201 -8.7830037219 -12.184691839
-40.639796799 9.1578162781 -58.247791839
27.667903201 10.1237062781 32.087208161
29.263103201 -38.2444937219 -12.565391839
-0.657544799 9.5844862781 -58.233691839
32.571203201 -14.4462937219 31.939508161
27.526103201 58.3396062781 30.307608161
26.974603201 -9.1859037219 -13.483991839
29.708303201 -8.2277437219 31.991408161
25.961803201 34.6888062781 -14.513391839
6.215003201 -1.3412737219 36.873808161
-28.253896799 -0.1180037219 34.277008161
0.557703201 71.1912062781 35.418908161
-27.359796799 23.2746062781 80.128508161
1.197733201 -0.1666079219 33.867608161
-29.824996799 -0.6913987219 -10.584791839
76.872603201 43.9056062781 33.125208161
36.727103201 39.7886062781 -9.247871839
38.967003201 -7.0869937219 -9.271451839
8.413333201 18.8186062781 -9.990721839
70.138803201 21.4714062781 33.617608161
-32.466096799 22.3529062781 -9.605611839
35.170303201 -3.1294237219 34.980208161
7.435003201 -25.8438937219 80.391808161
7.322543201 20.2160062781 -9.743181839
69.183503201 -25.4706937219 -52.887591839
-27.328396799 70.9550062781 -11.796991839
6.301843201 -25.2153937219 -14.552391839
40.203503201 -25.2324937219 33.040508161
38.687403201 22.8419062781 31.967108161
42.805503201 -1.9032837219 74.323208161
41.246503201 -26.9762937219 74.464908161
41.056603201 -5.1575937219 -8.985901839
74.837303201 46.9961062781 31.355008161
34.761203201 18.0175062781 36.793208161
77.518503201 22.9717062781 32.553808161
45.806403201 -0.4781657219 -10.634591839
11.779403201 -2.8904237219 36.799308161
-22.494496799 39.8385062781 32.517008161
-24.725896799 -0.3160461219 36.602408161
11.129203201 -29.5708937219 -11.481091839
-24.419296799 -4.8037837219 35.293708161
45.481803201 67.8882062781 79.626708161
43.381403201 -2.1034437219 -7.840841839
9.244803201 21.4824062781 32.793208161
44.566403201 44.2132062781 36.438008161
45.353303201 -0.7661607219 -13.536091839
10.408403201 -31.4916937219 36.648208161
9.572263201 46.4108062781 33.935208161
45.073803201 45.2612062781 -10.833791839
45.381803201 41.4694062781 -8.552001839
10.773903201 -26.2159937219 -12.676191839
9.513683201 22.1884062781 75.597808161
8.802533201 22.6476062781 -9.200941839
-8.614236799 -3.7843037219 29.754208161
-11.294496799 88.2315062781 -13.977791839
24.404503201 -0.3457907219 30.902508161
-8.631756799 -3.2832937219 36.626708161
32.423403201 19.8978062781 36.087708161
62.220003201 -4.5018737219 -12.748591839
-7.652116799 16.0728062781 31.845208161
-5.712956799 41.7032062781 -13.932591839
-5.603986799 16.9891062781 35.863408161
62.024403201 16.1229062781 81.576108161
27.206703201 17.5460062781 31.134208161
-6.615056799 17.8175062781 34.465708161
25.954103201 -29.3275937219 29.920008161
25.994903201 16.3856062781 36.381408161
61.422403201 19.2134062781 36.811108161
-2.263086799 18.1948062781 -8.994051839
-3.702386799 -27.8625937219 -8.820811839
-7.502756799 -3.8253137219 33.142208161
33.146603201 41.9213062781 36.857908161
-6.967276799 -2.7900337219 -8.284701839
27.219403201 17.6376062781 -8.501411839
26.237303201 -4.4472737219 75.820208161
26.141003201 -54.0553937219 34.840408161
31.671903201 16.9585062781 36.982408161
-4.229256799 -5.9508637219 -8.078231839
-36.750696799 47.2542062781 36.512008161
71.089203201 -22.4205937219 37.419008161
5.409643201 71.8860062781 -4.727301839
39.696703201 24.7627062781 -2.828591839
41.377603201 0.7850362781 41.240708161
0.039971201 7.7318162781 -0.706079839
72.072203201 2.6899362781 -5.847611839
-28.584296799 30.3946062781 43.756508161
42.876503201 0.4411252781 37.743108161
42.584603201 28.3520062781 -1.508581839
0.885763201 24.8700062781 38.220708161
34.496603201 -19.3378937219 -2.245361839
0.161779201 7.6020162781 42.029208161
34.432703201 26.0350062781 -5.261541839
8.800463201 -16.2734937219 43.804808161
16.539603201 -15.9177937219 -5.208891839
15.011703201 5.0880962781 -4.006781839
9.762903201 1.3154562781 84.811708161
45.953203201 30.8129062781 85.676408161
13.661303201 5.3888862781 37.879008161
16.280303201 -40.7339937219 42.474508161
45.181503201 26.6568062781 40.578608161
11.604203201 28.9372062781 37.794108161
9.116673201 3.3402262781 -6.422681839
17.056103201 27.7060062781 42.559808161
43.227603201 4.7921862781 39.274308161
12.377803201 -23.7022937219 38.314008161
48.688803201 4.9442462781 42.023208161
49.249403201 -17.9443937219 43.359008161
47.747503201 7.3595162781 41.084208161
-21.657096799 7.6447462781 44.117508161
9.568203201 53.5792062781 -1.447839839
9.647893201 54.7592062781 37.139508161
-17.608296799 5.3333262781 -0.783312839
-55.317096799 1.5510762781 -6.382661839
-23.870696799 2.3290562781 -5.714851839
12.341303201 31.4495062781 39.698408161
11.813703201 25.3429062781 37.877308161
8.950473201 25.4439062781 38.912308161
12.459003201 30.4597062781 38.291508161
-24.280096799 4.6069462781 -3.882681839
10.395203201 4.2312162781 38.904008161
16.100803201 53.9737062781 -4.080601839
14.751103201 30.1006062781 41.533208161
-17.049796799 5.6829262781 41.821308161
25.070403201 -17.4203937219 -1.042029839
17.344803201 31.6550062781 -7.004021839
-12.585596799 -19.0723937219 41.020408161
-2.278816799 26.6442062781 -1.163956839
30.371903201 -41.5123937219 88.931908161
-40.824096799 5.0562262781 -2.292241839
31.103203201 51.7554062781 44.517308161
30.250103201 50.1658062781 -0.662829839
66.559103201 1.3800862781 37.273908161
-0.625971799 2.0130462781 -7.250461839
62.323603201 55.0842062781 44.020808161
62.867603201 26.8233062781 42.378308161
28.913003201 6.2252362781 -1.326733839
31.420603201 1.2409662781 -1.013160839
30.608803201 -16.6664937219 -1.905641839
2.656093201 -14.2332937219 41.611008161
39.700903201 33.9215062781 43.253208161
36.209003201 34.6555062781 -1.972531839
2.448243201 9.7495262781 -0.813000839
3.892213201 56.3879062781 43.080808161
7.862873201 -38.8138937219 -1.903031839
2.766253201 11.3008062781 -0.505791939
41.253303201 11.7509062781 39.331208161
4.443863201 9.7848062781 -2.911801839
3.115543201 -11.4109937219 42.440608161
42.814603201 34.0666062781 43.122308161
4.288873201 35.6751062781 -0.841380839
69.089703201 63.1400062781 -3.718881839
1.653793201 11.9022062781 38.742708161
-64.794196799 33.8498062781 44.406808161
-17.468696799 -34.3269937219 -0.018363839
16.985503201 33.4380062781 -2.849571839
15.436703201 8.0440962781 82.307008161
43.731003201 8.1012362781 83.521008161
47.626103201 39.4831062781 -2.014351839
46.882003201 8.0376562781 -2.017381839
43.183303201 -12.3458937219 86.512008161
16.959903201 -12.2971937219 -0.584360839
-17.588996799 -12.9786937219 37.384808161
15.770503201 13.8735062781 37.365408161
-23.762696799 -15.2574937219 84.566508161
-21.556896799 -55.9678937219 38.224108161
49.647303201 -13.9434937219 -7.108051839
43.954203201 32.7951062781 37.426808161
16.687603201 8.4331962781 42.886808161
13.803603201 57.9967062781 -7.324881839
9.595533201 -13.6707937219 -0.095414839
13.935703201 11.5279062781 -0.271769839
16.264403201 13.3758062781 40.354708161
-18.330096799 -36.7991937219 -5.637931839
-23.305596799 11.7963062781 37.931208161
16.087503201 85.7678062781 43.412908161
-22.210096799 33.4278062781 42.252508161
15.330703201 9.4275262781 -1.942501839
13.051903201 10.2796062781 40.932308161
-23.264996799 9.9417062781 -3.596121839
12.783603201 13.1414062781 -4.063851839
11.074603201 12.9809062781 -4.056221839
46.693903201 13.8082062781 -0.050014839
15.267103201 34.4294062781 43.905408161
15.470403201 37.4953062781 41.983308161
49.711003201 -35.3051937219 -3.088331839
-20.524596799 13.0616062781 41.830508161
10.318303201 35.2775062781 -3.677941839
-23.149996799 -11.1914937219 43.528708161
-24.294096799 36.3566062781 -2.393171839
49.883403201 32.7544062781 44.360908161
46.838903201 34.6948062781 43.525808161
13.058903201 12.5571062781 43.344508161
9.414953201 32.6577062781 43.190008161
-19.292696799 32.7577062781 39.152708161
-22.396996799 34.2085062781 -6.470441839
47.180003201 12.1762062781 37.823208161
-20.602896799 -14.7790937219 41.680408161
45.085403201 32.4603062781 41.971708161
12.145503201 -14.2506937219 39.525408161
48.344203201 11.7294062781 -3.937451839
15.294503201 -35.4732937219 39.571208161
49.963003201 -32.6381937219 -4.337501839
44.466303201 12.2889062781 39.162408161
49.600803201 13.5717062781 38.825108161
12.279903201 15.2873062781 -0.413381739
-18.528496799 -12.7595937219 42.349608161
13.858503201 -9.0516037219 41.222708161
13.833403201 36.4047062781 39.088308161
13.686103201 -33.2010937219 39.373608161
48.129403201 -14.8299937219 -4.559901839
-17.613196799 9.5046362781 40.097708161
52.981403201 13.4557062781 82.944708161
57.833203201 -11.6647937219 81.932208161
-15.134396799 14.6367062781 39.518908161
-16.067496799 9.3205662781 37.640408161
52.160803201 10.3700062781 -5.655861839
24.764303201 9.6323962781 88.935008161
17.918503201 60.6742062781 84.713508161
18.223903201 10.3281062781 44.295008161
23.924803201 -8.5164637219 38.562908161
18.201703201 -38.5039937219 87.603308161
18.137703201 38.5769062781 43.902108161
18.654703201 59.3488062781 -5.321801839
18.114103201 55.9401062781 39.314008161
25.395603201 -13.1448937219 -6.063531839
-10.034966799 -13.2007937219 37.140208161
17.655003201 34.8309062781 -2.071171839
-17.046396799 -15.0821937219 44.481308161
27.667103201 -15.6143937219 37.466208161
31.740403201 15.0380062781 -7.387461839
32.821203201 15.4105062781 -2.975471839
-0.376632799 -58.0235937219 42.644508161
-0.805147799 11.1212062781 40.677408161
-5.645006799 -14.6903937219 -0.351912739
66.843903201 14.6003062781 -5.850471839
30.625803201 -33.2404937219 38.289708161
-3.837176799 -14.9795937219 -1.018694839
-0.420551999 11.9529062781 43.997508161
-0.280981099 12.6503062781 41.090508161
-39.270096799 39.0426062781 -5.251041839
-5.537816799 -8.8348037219 -3.421751839
-6.618346799 -32.8006937219 39.661708161
33.178303201 -13.9422937219 -2.621531839
-1.107556799 10.2274062781 43.676608161
27.396103201 -31.8090937219 41.290608161
6.905843201 18.4615062781 37.216108161
6.858923201 -6.5674837219 -4.955021839
7.565013201 45.2976062781 82.279608161
7.265703201 19.0651062781 42.284508161
5.625253201 42.4016062781 -1.535121839
5.407143201 -5.5462937219 39.647808161
5.596733201 -4.4130337219 -6.328301839
6.431603201 70.6075062781 39.761308161
36.203803201 45.7299062781 38.987208161
6.260953201 -3.3948637219 -1.336573839
34.781703201 45.6195062781 37.922808161
40.860903201 -3.8338937219 -4.785651839
35.641203201 -4.7359637219 37.569408161
34.786803201 -2.1175437219 41.472108161
41.363603201 18.6959062781 40.805508161
6.992773201 41.2382062781 -1.159898839
76.965503201 19.6525062781 39.856508161
42.691003201 -3.7210937219 43.231908161
69.322503201 -0.4305147219 -5.550071839
36.248303201 21.0327062781 40.783008161
7.344613201 23.1448062781 -6.128771839
40.512903201 69.1445062781 -2.267091839
-26.134696799 -5.7226537219 39.617408161
6.540003201 23.4818062781 42.751308161
3.466283201 22.3670062781 -44.749191839
5.982483201 45.2941062781 85.037708161
42.245903201 64.6046062781 -50.792291839
5.945713201 17.4999062781 -6.501211839
0.297802201 -30.2912937219 -4.801371839
0.189690201 20.1360062781 -4.355761839
35.494703201 -3.6017337219 38.886608161
-25.808996799 18.3408062781 -1.103475839
39.166803201 46.3792062781 39.757508161
35.827203201 -0.9274167219 40.693108161
7.337423201 43.8633062781 -6.179661839
-27.201396799 -1.1419677219 -3.135571839
51.281703201 -7.6164637219 -0.537613439
43.020803201 18.8222062781 38.204008161
43.378103201 -1.5500437219 -3.237211839
10.107703201 42.6293062781 -7.246421839
11.452003201 16.2547062781 -1.653411839
-24.403996799 -7.6045137219 41.740108161
48.208603201 -7.3383237219 -44.989291839
10.256003201 23.4924062781 40.909308161
46.086703201 -30.6598937219 -5.754021839
10.410903201 -0.6981117219 -1.872261839
8.905933201 22.6357062781 -6.372821839
11.664503201 46.2923062781 40.093308161
43.728103201 44.5606062781 40.560308161
9.516293201 44.8204062781 -2.198171839
9.951703201 22.1788062781 -4.839101839
11.304703201 45.1243062781 42.586308161
13.768303201 17.6768062781 -1.589311839
46.734103201 17.1943062781 41.870008161
-23.348696799 -5.2155837219 -2.996741839
-21.332596799 -6.9323337219 -6.680641839
9.650243201 41.3623062781 -48.517591839
11.574403201 -5.6285037219 37.666008161
45.655803201 -27.7500937219 38.114808161
-46.105896799 15.9991062781 37.174108161
-9.602036799 43.1120062781 44.149108161
-10.378296799 20.4598062781 -2.978121839
-11.092796799 -5.8677537219 -7.340721839
-9.810006799 -5.6254037219 -6.322981839
23.554103201 19.2761062781 -1.798801839
25.058803201 42.0005062781 42.890508161
25.001403201 -7.2882237219 -49.892091839
21.138703201 -6.7996537219 44.367208161
24.415803201 -5.0086237219 41.238108161
-8.991766799 -2.3880837219 42.101908161
25.297203201 21.1636062781 -6.294541839
60.140503201 20.0188062781 -3.634281839
-9.862306799 16.3153062781 -7.189921839
23.312403201 -25.0995937219 43.893908161
23.509603201 45.1267062781 -5.977421839
-10.268356799 20.9652062781 -1.313508839
24.005103201 -5.9857237219 -4.536211839
22.641803201 18.4214062781 38.691408161
22.251903201 -27.3317937219 38.796508161
26.034103201 20.7564062781 43.649608161
-42.966196799 19.2110062781 38.042908161
-3.246956799 -3.1819837219 -7.416621839
26.423903201 45.8658062781 37.183608161
33.130003201 15.8604062781 39.901908161
29.881003201 66.8067062781 37.338508161
28.012803201 16.1656062781 -5.787031839
31.192703201 -25.1343937219 -7.285551839
26.626803201 16.5307062781 39.767508161
-40.399396799 19.9505062781 -6.878651839
28.229903201 45.5593062781 37.567008161
26.288103201 -3.4312837219 39.322308161
68.503503201 -24.4672937219 -3.989021839
32.189303201 23.4303062781 38.167108161
27.157503201 -0.1517180219 44.195008161
34.281903201 18.6399062781 85.082508161
33.807603201 18.1182062781 42.369208161
32.650003201 43.4756062781 37.879808161
-3.910326799 17.8721062781 38.038708161
26.559703201 -28.8147937219 86.324408161
61.116403201 -4.7281837219 43.292508161
26.900503201 69.5561062781 83.481808161
29.756203201 42.6591062781 -0.279760839
63.615203201 17.2489062781 43.794008161
27.851703201 18.3543062781 44.448108161
-5.372256799 -1.3944637219 41.631308161
-41.361296799 -4.6340237219 38.675408161
33.449503201 46.3713062781 38.929808161
-2.149006799 41.9919062781 38.442808161
30.887403201 43.3485062781 38.537108161
-0.529967799 -3.1438737219 38.692908161
29.426203201 -6.6440037219 -5.326091839
30.849603201 -24.9210937219 -2.647791839
26.840903201 -3.4287837219 42.338108161
29.780003201 -1.7729137219 -1.479741839
61.607703201 17.3525062781 85.673408161
-40.033896799 16.5042062781 -2.528391839
30.097203201 16.4476062781 40.819808161
27.852003201 41.5173062781 -4.995931839
28.798903201 20.9489062781 -4.108411839
27.957903201 -26.6429937219 -5.533401839
28.941303201 -29.6199937219 40.728908161
31.353503201 21.1506062781 -1.657851839
33.185803201 21.4341062781 -4.099941839
-39.567896799 -4.2131137219 -3.319581839
29.836303201 -3.5349337219 43.103708161
-4.216566799 45.7464062781 40.382308161
-2.676146799 16.6299062781 40.957208161
-3.244616799 -27.8301937219 41.719208161
-5.831696799 -2.9202237219 42.267508161
66.710903201 -29.0580937219 41.657308161
-1.850346799 -54.5573937219 42.686408161
67.243203201 17.4884062781 -4.718761839
-2.724336799 21.3076062781 -3.465431839
30.420403201 -3.4145137219 -4.487171839
Cartesian
-7.41315 3.09582 0.85276
0.182068 2.90641 -7.4771
4.71268 0.288824 9.02726
-3.44475 -5.93746 2.75891
7.27333 -2.57847 -6.69031
3.75808 -6.20674 3.46451
-5.57627 6.1484 2.84586
-2.30527 3.25638 2.2463
-6.84803 -2.4158 -1.73887
2.40157 -1.38546 -6.42875
-5.72663 7.77339 -0.988165
1.16712 -2.04821 1.73907
-0.642576 2.6964 7.44411
-0.0531016 8.5506 1.32727
-2.6204 -0.855619 -6.86153
-4.08585 6.99545 3.30667
-0.00532226 2.79408 -7.08859
-3.63851 -2.74659 -2.67123
0.438919 1.16136 -3.91845
-0.340069 -1.87927 -5.33308
0.130937 -9.09648 1.13261
-2.59931 -5.76863 9.08364
1.36938 9.11832 3.78751
4.91026 0.028181 -0.846416
-1.12683 -5.28513 2.4826
4.38153 6.71097 4.09776
2.11496 0.0475329 7.30214
7.36039 8.24372 2.73635
1.92788 5.18296 4.5185
3.27013 -2.23759 -1.90603
-3.87606 -1.06368 4.69369
-2.55989 1.59715 2.07491
3.19693 0.134609 -3.10325
10.9735 -1.74507 6.89891
1.31656 -0.144322 -3.21308
-0.321675 -2.99762 3.94631
2.77506 2.65795 6.82994
8.92612 4.11926 6.28097
-6.80532 -4.48108 7.36529
0.868734 1.29965 -3.4344
1.69558 -4.03798 3.79234
-0.232812 4.78881 -1.30841
-2.0489 -5.17244 1.56996
-3.60425 -0.390429 -6.0525
5.01325 0.651809 0.472521
-2.74412 -0.436555 2.60111
-5.59784 -5.27323 5.39787
-1.75477 -1.60503 -0.821429
1.01703 1.36724 8.13927
1.18267 0.0562963 -2.84404
1.43332 1.73145 4.4288
-3.42877 -3.94237 10.1633
-4.41619 -6.07755 2.61628
0.0820198 1.86113 0.948365
0.809583 5.29955 7.52029
2.22774 2.15895 8.28488
-0.839579 -5.05632 -2.49059
-6.33898 0.127586 -3.25823
3.03466 3.21433 -5.95136
0.601438 -1.89884 -5.81409
-2.00663 -3.11194 -7.45196
-1.65874 9.17338 -6.84061
5.42156 -4.39954 -6.88753
-4.91281 0.418797 2.24902
-5.46649 6.23192 -3.41102
9.09045 0.6536 -3.07303
-1.42677 -2.1131 3.3027
0.448021 -6.10667 -1.47424
-0.367531 -2.56988 -4.51707
-1.93386 -4.49067 1.44717
-0.0534134 9.41438 -3.62431
-1.53152 1.53164 -0.736598
0.0116973 -2.35357 -2.91348
1.20765 1.79868 7.27928
-9.5174 4.12032 4.65106
-5.31744 6.80392 -4.36541
-0.630177 4.81736 -1.22753
2.86053 -0.872843 -2.75843
4.51719 -2.57881 -3.19039
1.78319 5.61077 0.712304
-5.08912 -5.7285 -7.97771
6.55439 -0.646258 4.60504
-2.35699 -3.66675 10.4489
2.54974 4.83987 -1.9019
-1.85986 -2.06072 0.944474
0.352475 -3.21027 1.79793
-5.50532 0.478465 6.19118
2.22897 1.68251 -0.120909
5.67336 -8.64217 -2.13923
-3.9167 -6.98427 -6.61882
-4.19909 -6.66258 -2.47414
-3.18815 1.45438 -6.84516
1.02261 -4.7511 -7.5142
-2.43339 -6.80215 -14.8689
-7.39081 0.543013 -1.15659
3.64681 -2.05283 -0.641157
-2.99943 0.188622 -6.61085
-0.141602 4.68454 6.73228
-0.601423 -5.32412 4.80032
2.49732 4.82485 -2.15281
-4.13685 8.01012 -8.45406
6.61561 -1.7466 -0.435022
-4.51714 2.87671 8.35705
-3.28588 0.49403 7.18917
-1.23579 7.54908 2.37931
-0.298074 0.22549 -1.80873
-4.98319 2.28609 2.15199
-1.09975 1.75372 5.04542
7.91246 -3.54394 -5.49066
-7.93913 -6.22053 -1.21817
2.94472 -2.88057 2.26117
1.50876 -3.86722 -4.83568
-2.14603 0.997435 -5.77689
12.7005 -1.748 -12.6479
-6.33435 3.61311 2.66921
-2.84562 -5.21538 5.83838
-6.65768 3.46835 1.83102
-6.93077 1.03875 -4.87096
2.63675 -4.50728 -1.92191
-0.96632 -1.01554 1.31515
5.58651 -1.98253 -5.34051
3.87918 1.08073 0.274572
-7.09486 -3.2928 -3.37087
-3.17565 7.5372 -0.956504
2.67027 -3.61327 -1.01209
-2.32974 7.31984 4.10527
5.07045 3.85763 -9.94699
-4.3987 -4.23872 -4.6726
-4.40241 3.65092 2.66006
-7.64972 -3.79521 -3.3269
-9.91672 -1.86321 -2.94564
-6.87141 -0.992351 2.12177
5.80334 4.53104 3.73172
-3.57536 -5.35847 1.90477
2.66493 -3.14412 8.5153
2.72214 9.40611 -1.63408
-3.16991 -7.40166 1.43533
3.0146 -8.68792 -9.56499
-2.81519 7.35552 4.83185
6.6483 -2.66415 -2.87938
-0.893614 -2.56695 -1.34133
1.57832 -7.73521 -5.24179
2.82572 -0.166119 2.34149
-0.401918 -2.8764 -3.66122
-0.805823 3.18735 -1.66961
-8.73671 -3.56875 -2.34435
6.43389 3.19947 1.95817
2.56956 3.58084 -3.62542
1.41721 -8.87486 -0.204945
3.23214 7.34298 -5.70644
2.31507 -1.46929 -2.34172
0.775566 -2.91884 -1.14637
-4.39603 9.44313 0.279295
1.84781 3.26012 -0.564589
-2.57373 -1.18467 -0.867323
-5.32792 0.596866 -3.34215
-4.37725 0.826246 0.770868
3.78305 -11.016 -5.43204
0.929352 1.03422 -2.39787
1.37784 -7.57691 1.17057
-0.467589 -4.9083 -2.5221
-9.3963 1.96614 2.58981
-0.243701 1.74623 2.73558
11.3043 -3.31918 -13.4811
-9.76786 -1.6616 6.35804
-0.412894 7.16681 -0.897959
-0.212345 -0.69523 -2.58652
5.56995 -10.5849 1.86344
-0.341428 3.44566 3.2641
-9.39335 5.11414 -9.28726
-1.92146 5.71391 -2.05924
-1.5506 4.26593 7.11308
-6.44146 7.82162 4.43378
2.35344 2.46304 -1.7229
0.0609525 -0.206528 -2.98465
-1.42405 -5.48692 0.289714
1.24355 5.14271 -3.15381
4.41619 -0.460949 -6.35267
-2.09725 0.147929 -1.35531
-4.78513 2.29887 -2.67476
2.28399 3.99915 5.70145
3.37961 -4.35514 2.59502
0.101675 -0.669538 -7.28111
-0.945496 -5.16176 4.03483
-2.56979 -4.09012 -1.32411
-3.3746 -6.69426 4.51919
0.864267 -8.3096 -1.54214
3.91469 -1.93646 -8.17784
12.0757 2.75098 2.2014
-0.132151 -2.18542 -1.7581
-6.51354 0.498571 -1.64741
-1.4546 -4.06025 6.84457
1.11717 -6.80415 -6.00056
-4.35632 -3.84877 0.0604279
0.483755 6.94417 -7.4618
0.925172 0.48795 -8.22114
3.57055 2.19247 -7.44591
5.59919 -4.24339 0.67826
-0.311045 -4.1787 1.18049
4.39521 -5.74143 1.10856
-3.51139 7.43173 -2.74345
-0.973959 -8.05045 2.41734
-1.80315 -5.50581 1.00149
2.25014 2.85182 -3.35048
-0.493202 -3.32606 0.187685
7.02021 -5.33522 -1.58385
-3.10182 2.78892 8.35148
-5.07583 1.66135 6.56363
0.812186 -2.81753 -9.57766
3.06064 -0.145281 4.38503
2.29027 -1.70202 4.66323
-9.21449 -2.97375 5.01612
5.74658 4.5893 -7.8773
7.24656 -2.53123 -10.9424
-1.98719 0.718189 -1.77495
5.71303 0.355981 -5.54602
6.9201 0.319725 -14.2996
-6.69579 -4.34039 8.77723
1.20169 4.31022 7.85075
5.54951 2.72592 3.21
-2.25044 0.921633 7.60738
5.49604 -4.73527 -1.77948
6.07095 -10.3545 1.37084
-3.9595 -1.3671 -2.46419
0.126049 -1.5922 -0.111441
1.60265 4.02363 1.88285
2.78256 -3.14534 7.58548
-7.47873 5.04087 1.50272
2.59484 4.68427 1.70059
-0.344624 5.27911 0.280624
4.29042 5.13693 5.31223
-4.68706 -2.65577 -1.79199
-3.12251 -4.32619 -4.34428
-6.52223 11.8169 -0.175263
-4.98786 2.99356 -2.53379
-6.93601 -0.540888 2.98667
0.542771 3.43349 -5.16737
0.612725 3.48785 11.0914
4.62334 7.9741 2.67722
3.7762 5.12117 -4.90881
5.48495 -5.17536 8.59149
2.12568 1.20353 0.399988
4.37734 -1.21658 0.312911
-2.59313 -10.0561 -10.402
-4.13808 3.02838 -2.08152
0.29991 4.2373 1.16939
-2.32018 -11.4269 0.711532
-2.36937 4.09293 -3.63663
-0.91063 6.26833 -1.32466
2.58311 2.54804 -0.800308
-0.566388 3.13507 -0.845297
8.49616 -7.07557 -2.63291
-0.649462 3.81021 -3.66575
0.655811 -0.998011 -3.88584
-10.9505 -0.0285516 2.45929
4.17914 1.05633 3.29928
-1.69482 8.20086 -5.19743
5.55451 1.49283 -2.80105
3.66582 6.77142 4.07213
-6.28268 2.98861 10.2704
4.04967 -5.70404 0.852426
-0.588841 -9.20678 4.62876
3.90453 -4.56412 -0.404225
2.61899 6.78182 -2.12792
-0.47986 -9.35291 -5.18306
-4.48685 -4.18572 3.55647
1.87929 1.99439 0.379909
1.38474 9.50208 -7.15755
-8.16452 -2.85115 8.14831
-1.68253 -7.59621 -0.70512
-2.35574 -0.91678 0.634329
-3.53585 4.27325 0.433086
6.58344 -5.06592 -0.291129
5.80066 -10.2714 -0.264725
3.03014 -2.05064 -0.817919
-0.865971 -1.36559 0.234227
-2.14254 -9.33516 -3.9128
-0.70995 1.92124 6.8522
-12.9177 1.87378 -0.594301
-2.60952 -2.07448 2.46803
10.9616 0.9974 -1.25888
2.79813 -6.21928 3.93478
2.49788 -0.474213 -1.85212
-9.06807 4.78014 -6.05928
-3.90729 8.03546 -7.29915
0.749814 4.33475 1.34368
-2.60654 7.91268 7.39218
2.24945 -8.2569 -3.6159
-1.90713 -3.73247 -5.60584
4.77088 6.15728 1.32962
1.49349 3.0987 -2.93557
2.21276 -4.61979 -4.04901
-6.6738 0.572673 2.10321
2.32933 -3.94099 8.70445
-1.07419 -7.59088 -9.75998
0.913461 -1.31551 6.40923
0.347415 1.56075 2.76107
-3.38884 -1.15765 2.65626
3.2478 3.48134 -3.9071
-0.684121 3.13014 -6.20229
-8.59227 -5.86891 1.21593
-3.43799 -0.166225 -0.708688
0.271685 4.25866 -9.00258
-3.24663 -5.63382 -6.47902
-0.768664 2.4494 -1.27573
3.77307 -6.67682 2.61426
-7.52691 -0.387018 -3.32625
1.40227 -3.34935 -4.14199
1.26918 -5.148 2.43602
0.691544 1.13722 0.259007
5.79023 -0.69209 -5.11772
-4.61476 13.008 -6.13251
1.4426 -1.25832 -2.08021
1.73781 -4.69173 -1.85019
4.18887 3.43881 -2.05643
-0.22418 -1.33865 -6.01184
4.41093 4.51891 -3.75977
8.92074 9.65851 -2.58856
0.982834 2.18367 -2.99753
-4.09051 3.763 -4.981
9.11739 -6.62063 8.32787
1.32909 -3.46619 4.3086
-0.652807 -0.789027 1.69131
-2.43261 -3.65046 -0.0419551
-7.19995 -0.875543 1.00896
-2.49924 0.305268 0.622897
-1.35873 -4.57769 12.4399
0.514195 4.06548 -2.05055
-0.556168 -5.22062 0.44523
-3.03922 7.16577 6.90823
-2.47404 -0.450409 -9.76091
7.6827 -6.67678 -1.25842
4.05791 3.57561 4.86238
-3.38426 -7.10556 3.80096
-4.0109 2.00517 4.66373
-2.5146 7.51142 7.10403
4.70151 -5.27512 2.32163
-7.04351 -6.04943 3.34162
4.86132 -2.52056 3.13226
-3.0875 12.7942 -4.27535
-5.2536 -8.97795 0.680086
-1.60669 7.19425 -6.44611
5.42756 0.0470547 -5.49012
-4.57834 -8.73672 7.23204
-2.74578 2.9849 -3.05395
-5.59947 1.60386 3.38808
11.1173 0.840522 6.2938
-0.642343 0.394211 -5.3932
-3.29381 12.9533 -1.45478
-6.49987 -10.0282 -0.155629
1.40242 -3.41748 4.14776
2.84622 -0.16443 -3.62437
-5.16733 0.280284 -7.10668
-4.77756 3.91581 1.95072
2.34341 -4.9602 -3.57948
-2.76078 1.87903 -4.04026
0.170195 2.84725 7.78328
-5.23865 2.60817 4.76268
3.67396 4.81357 4.00769
-0.463322 7.80457 3.18649
0.928892 -4.97072 9.07972
0.152624 -5.68243 -12.4998
4.90703 -2.57915 -6.53208
-3.33924 1.42786 -0.751632
-3.9783 -0.56603 7.54292
6.50596 0.201876 -3.43325
-1.56553 -1.49202 3.84003
3.24153 0.3709 5.46972
12.9475 -5.41044 -9.43227
5.7647 -2.11701 -2.81778
11.9549 -6.09566 3.56924
-6.37539 -5.61074 2.10403
1.13248 2.29945 5.85738
-0.863695 -1.15096 -0.745284
-3.33837 -0.596825 -5.84605
-1.37488 -2.65577 -7.28688
-4.84694 2.235 2.45191
-3.86497 4.93553 2.95159
-3.67061 2.54374 3.86474
5.24255 -2.52349 -5.54847
0.331883 4.47098 -3.92938
-2.05907 -3.21864 1.59936
-1.58838 -8.69034 -1.96909
5.95894 0.405858 -1.52282
-1.41892 2.17077 1.775
-4.56298 6.51929 8.01526
-2.30085 4.16972 2.77369
4.87166 1.69742 -2.7952
3.42071 9.53417 -3.08551
-0.109381 -1.88275 -1.08267
-3.54608 -8.70967 -0.195509
0.273571 -4.39237 -6.53049
-2.23931 4.19045 5.41584
-0.764911 -1.8532 1.53176
0.0792136 3.61681 6.40552
13.7471 -1.61352 3.48137
5.62302 -5.44286 0.386797
-0.525335 -4.52243 2.89876
4.33166 1.13651 -9.35622
0.569749 -11.7894 2.65177
-0.331811 6.57376 -4.94084
-6.91649 -1.3627 -5.23881
-0.0943255 -0.486363 6.81927
-4.63885 4.7381 -1.34928
5.79236 -8.01491 -0.0350908
2.62 5.26639 2.00774
-2.49837 -2.32133 4.47993
16.3841 -0.290076 5.74831
2.59065 -6.3134 -5.40589
-4.54417 -8.93222 2.50731
4.92856 -3.05232 8.79709
0.250379 -6.47768 3.77193
-1.56852 7.25072 -7.19881
0.638027 -2.0664 0.688733
-5.43297 3.02907 3.96458
4.2646 4.71972 5.97361
-3.13233 6.26913 -0.333727
-2.36029 -0.499989 0.963561
1.47975 -4.22516 -2.62222
2.56906 -5.11523 -8.05223
8.511 -5.46185 -2.97833
3.58764 2.80254 1.32304
1.62081 -1.61668 -1.0962
3.77058 -3.05661 0.388839
1.21696 -0.708903 4.35601
5.20497 8.72728 2.65317
-0.762565 3.12632 3.34489
-2.29614 0.60562 -1.35662
1.16801 0.407421 -1.62154
-1.14379 7.53251 1.68907
-2.32311 -1.02854 8.09623
8.52301 5.14936 -3.68152
-7.25049 8.41217 0.20497
-2.23069 9.42516 -4.71408
1.50145 4.29622 -11.6598
6.33886 4.61583 10.1469
-0.823349 -4.96997 -1.58235
1.94595 7.95935 -4.31096
4.43402 -4.36968 0.701804
-1.45438 1.95663 0.307534
-4.40272 -1.12921 -0.714848
-10.3181 3.11622 -9.9946
7.32395 5.22321 -3.38317
0.854573 2.34081 7.21507
7.25314 5.44232 2.2935
-8.0109 5.46112 7.9261
0.677398 -4.81729 -4.86649
-6.48407 0.704771 -4.02787
2.97294 -2.57267 -7.4932
9.99931 -3.75292 5.30686
1.43556 0.143351 -4.80833
-8.37422 2.84191 3.76051
-7.5873 -3.33675 -5.2147
1.93065 -9.73323 -5.68092
1.52073 -4.69235 6.44155
-1.4657 0.499557 1.67568
-0.393668 -6.90594 -4.25429
4.94022 8.21212 -2.30011
-7.17369 -3.0381 -3.24258
4.3381 5.82474 -3.25816
2.79921 3.08199 5.69904
0.730956 -2.13773 2.14351
0.233134 2.32406 4.95602
6.59054 -3.94993 -9.60215
3.15273 -1.71127 4.4222
3.39783 6.31675 6.15008
-2.78999 1.75026 4.62285
3.35679 2.36062 4.27986
4.74169 -4.82317 1.34594
-7.34185 -4.03709 2.09823
-1.39426 -2.99199 -2.59421
7.0346 3.26022 2.83537
2.05436 -3.44725 0.65306
0.934266 3.9822 5.88666
-6.4477 1.53517 -1.40666
0.0787841 4.80718 2.72307
9.65199 -0.437897 0.70607
-4.97355 4.29482 -1.37801
-7.4374 2.95401 2.82004
2.59732 3.32747 8.57442
-1.15011 1.13601 -0.195846
-2.49982 -1.05304 5.71195
4.22205 -7.84396 -3.85108
3.26842 3.30204 -2.39141
3.28173 1.23375 -0.0282272
-1.15155 -1.55454 -0.116687
1.18739 5.43388 -7.10644
1.04042 5.48457 0.508871
-0.01201 2.34012 2.09822
9.87377 -0.33339 -1.09725
-4.08317 -2.74223 1.12721
0.916172 -4.1084 4.082
6.52631 1.59757 -2.18655
-3.94922 -9.47623 3.07864
-2.65125 0.918957 -4.63538
3.52963 -9.31548 -2.62893
-6.58494 2.22846 0.609881
0.971368 -1.48643 -7.78043
-3.20691 -1.13923 -0.0957974
-0.17922 0.812994 1.34576
-8.03951 -1.83638 -0.294065
7.95301 -4.35193 -2.09319
7.28447 0.71297 -4.11946
-0.549633 -1.93662 5.98264
-2.0129 0.858982 -6.88509
-7.50067 -0.288341 1.67956
-4.21476 -5.69772 3.76366
-4.10776 -1.86689 -6.27916
4.59801 -1.2062 -3.22902
-2.91146 -10.8649 2.29291
-11.2608 -0.818089 -7.28252
-1.27196 0.346658 1.54466
2.38043 5.18718 0.671799
-6.60367 4.19602 9.50292
-9.75418 -1.94788 14.0249
5.17367 4.00928 5.69691
-1.02799 -1.51599 -2.14743
1.97861 5.1805 -5.4244
2.63034 6.94896 -5.80811
4.56708 -6.57028 1.14716
-1.9419 -5.10208 5.41265
0.148491 3.13838 -3.45512
-2.16612 -7.44234 -2.3128
3.23682 5.51586 -0.0460579
-6.14811 0.504699 3.20226
4.5647 -5.22538 -4.77068
-4.0665 1.95593 -0.309182
10.7026 0.0856877 -1.91666
-3.60404 -0.422068 2.03852
-4.72094 -10.1601 3.85664
-6.13143 1.14047 -9.3713
3.39449 -1.69583 -0.624677
-0.152174 -1.4403 4.0621
3.06006 0.749662 0.179811
4.21607 1.65808 -7.12213
4.57916 -6.09684 4.77572
6.12151 6.27128 3.34443
-1.83645 -1.59115 2.55716
2.87786 -6.27051 1.98465
-0.356953 -3.13705 1.80205
3.4727 5.41291 3.79623
-1.62469 0.0295366 3.54481
6.77365 -1.53731 3.78516
5.43561 -8.60161 1.96586
3.58325 -0.956066 -4.98458
-1.70987 -5.55708 1.30729
-4.52762 -1.95737 -4.8353
-0.977412 -1.3894 7.7387
0.780505 -5.14707 3.9993
-3.9879 1.75647 -0.265496
4.29467 5.30816 4.80793
0.271149 1.95007 1.72918
0.509977 0.591224 0.079834
5.66514 3.95491 0.102637
11.2976 -1.01038 2.5718
5.73486 3.17916 9.40851
-0.608274 -4.59162 -3.29956
-0.189283 0.273693 2.33994
-3.16969 -6.97961 2.21414
2.81302 6.51625 5.49306
2.43524 -7.03828 0.194229
4.76443 8.39677 -0.902209
-9.62779 -3.91944 -1.9026
7.31449 4.27603 -2.44583
5.82408 3.61292 1.80857
-3.20842 10.4674 -7.88524
4.87533 1.06849 -6.3335
-7.46066 3.61106 11.3525
2.57657 2.23003 -1.10579
-4.45523 2.45367 -0.761687
-3.01008 -1.24687 -8.7297
0.384851 -2.25756 4.21843
-6.50362 9.62496 5.76301
8.23884 0.105491 2.18536
3.57817 3.57071 6.24679
1.11369 2.01378 3.74147
1.82891 6.03588 -5.42534
-3.94684 4.49423 4.34722
5.05451 7.04676 7.88236
4.98717 -2.52331 -1.09364
2.27666 -0.351848 5.02534
-5.32538 1.9819 1.55189
-2.53421 4.09257 -2.79146
8.07965 0.521691 -4.23156
-4.98172 1.51317 9.4947
2.09355 3.20594 6.6059
-0.15241 1.85394 3.45802
2.66431 3.2169 6.56221
-4.61923 -8.2011 5.39087
3.20615 3.25371 -5.91811
-1.1128 -4.27085 5.7686
4.87505 -5.44576 0.428149
-8.0258 -9.58203 2.497
-3.56587 0.0119939 -2.07589
1.33094 -2.19499 -2.47389
3.74211 3.0135 -0.586145
6.22941 7.88618 4.22351
4.72514 -7.43119 -12.2415
3.75111 -0.934641 0.411401
-1.88269 -7.27816 6.29169
4.16471 2.09226 3.908
5.16966 -1.82576 4.14141
-4.67884 -4.05762 4.85349
-6.37071 10.5129 0.825877
-1.75424 2.79332 -6.78675
4.53838 -2.48674 -5.6343
0.0821234 0.463149 1.47137
-0.628638 -2.01011 4.86118
-0.56232 3.16047 1.08654
-2.29914 -4.23962 0.448431
-0.443641 4.71638 3.91413
4.85433 2.04095 0.490922
1.9853 6.52051 -2.31751
-1.95243 -5.84728 -4.96129
1.04699 2.05541 1.08927
-2.07643 -1.15401 -2.19569
-3.27838 6.47531 7.53122
-2.65652 -2.06302 14.008
2.55493 1.11796 0.519432
-9.37296 0.555155 3.43726
-3.62282 -3.99656 4.71779
2.30066 -0.734436 -2.52544
-5.43576 -6.6189 -0.965874
4.6681 -5.58154 -1.85843
0.869027 -2.01774 10.5019
3.26554 -4.68688 -2.24484
-3.41846 3.15525 -4.41693
-8.82485 -3.00673 -2.12071
5.15469 11.6446 0.787191
-3.34628 -2.20427 4.10574
1.84891 -2.82108 -1.41851
1.45208 -5.1923 7.16347
-3.97712 6.39569 10.1768
3.33263 -1.55382 2.08238
-0.307959 -12.7535 2.19725
1.07241 12.6608 3.63828
7.93173 5.12848 1.55735
11.5408 -7.38614 -3.8565
3.01829 -5.2963 -1.49171
-2.19122 6.60301 0.521119
-1.57399 10.0777 4.94854
-1.37186 -6.14343 -9.75577
1.82684 5.94999 7.72777
3.76631 2.82888 -4.26434
-7.60761 5.42905 5.52661
2.56226 3.5655 -3.07124
-6.39121 8.40186 -0.219514
0.334883 -6.22401 -8.21009
1.97037 -5.20049 9.01053
-0.656735 -5.51349 0.389389
1.44309 4.34821 4.63302
3.52402 3.18985 -0.906717
4.95534 -2.33078 -7.02124
-2.44153 4.99173 -2.9986
-6.00038 9.5205 1.40169
2.59308 9.47183 4.2872
-3.58233 8.83016 2.6963
0.87735 8.21045 1.7994
4.74195 1.50528 -4.592
3.21043 7.48398 3.69907
5.75706 0.332112 -9.10542
-3.15823 -0.210701 2.28181
7.64114 -0.43752 3.30711
-2.78515 3.78535 -0.746121
-4.11284 -1.27191 0.528786
2.88228 3.10738 5.30245
0.867838 -5.68509 0.135472
-0.678455 5.26731 -5.22823
7.96663 5.66417 -3.95725
4.76021 -1.20533 -0.997537
4.37992 0.349537 6.30451
-5.37256 -4.2961 -10.7632
-0.110094 3.78085 -0.0127091
-6.73465 -1.84785 1.73151
-1.73294 -4.71661 0.414931
-4.09502 -4.20008 2.18505
2.7071 -3.80854 5.7851
3.2419 6.97859 -4.96209
-0.556645 1.64881 2.54134
-1.64144 -2.94266 -2.19093
2.30144 -0.318011 -2.97628
-6.07253 -0.159725 -2.50003
-3.30693 -7.84255 -4.88362
-1.24033 7.85566 -9.42916
4.56608 3.97338 7.71696
4.84284 2.91366 -1.64675
0.380825 -5.38243 -2.03809
-5.47756 4.51798 -8.89942
1.17423 1.76391 -7.46342
0.685899 -3.47596 -8.40307
1.15407 -3.7695 -8.43754
-1.17592 -3.92104 7.68907
3.6038 -4.871 5.52673
-6.2768 -12.4841 -4.17166
-6.54494 6.45087 5.33635
-7.58272 4.39544 10.1256
7.29973 -3.41853 0.96396
-2.49673 2.95379 -2.6262
-7.92161 0.175695 1.74342
-2.30104 0.484329 -1.08109
-3.46393 -4.02285 0.270572
-0.508417 -4.65942 4.87841
2.1125 -8.47102 -4.13226
-3.07388 -5.08714 0.789443
-3.22229 6.23081 -5.50423
0.381441 -2.42351 -10.7307
1.66076 9.5477 2.38822
5.35366 -0.223339 -6.0136
2.30075 0.0519419 -10.7343
-4.3488 1.11982 1.22175
1.36673 -0.881897 -0.167397
-4.60353 1.17581 -5.04182
-1.46131 -5.06449 -0.845228
-5.98195 -3.65731 -1.36083
1.74495 0.575824 4.23229
-10.6418 -5.16989 -2.3829
2.65861 1.14411 5.35691
1.69223 1.93722 8.38915
3.89328 2.84061 -9.65776
-9.11176 -7.71095 8.55339
-1.20093 4.05497 8.34838
7.25363 3.87018 -5.51881
0.247738 3.489 -1.01177
-5.2052 3.04808 -5.17544
-3.84669 4.44639 -1.02195
-2.15306 5.56857 -0.0809728
5.16928 4.70281 0.30983
0.787044 5.28147 -0.323374
-9.79952 -5.78002 6.5578
-2.50606 1.7763 2.04833
-2.12775 -0.0547854 -1.11809
-6.10082 5.79766 -0.942649
4.02249 -5.32862 6.60491
0.402996 3.09257 7.32894
1.36739 -3.91316 -2.5113
3.91761 2.41613 2.54967
-0.0886939 9.08399 -2.235
-3.2594 5.6045 -4.92428
-2.89085 0.0618687 0.418353
0.652114 2.05182 -0.00439928
3.68502 9.3865 0.246415
-5.21253 4.748 1.63341
-3.24041 -1.21295 -1.16948
1.3099 -6.90172 3.93695
1.16556 -0.517991 -3.92383
-0.417554 4.96362 2.38466
6.05763 3.1917 -0.829627
4.94259 0.804661 3.13998
0.678253 3.40721 4.13773
3.12853 -4.31538 -0.699212
5.85983 -1.96499 -3.20563
2.80399 0.965188 3.3133
2.95313 8.08295 -5.17946
8.45928 -2.33826 -10.4541
-1.3937 -4.54675 -1.83711
-1.54211 4.02111 -11.2555
5.13749 0.946507 1.86459
5.4018 4.46021 4.81868
-1.04575 7.64984 0.930472
-1.87143 0.901095 -3.58743
-6.19066 -9.64795 -5.7342
7.61339 -1.76756 5.20308
12.4359 4.73863 0.482376
7.02572 1.66482 1.41889
0.967504 7.64893 -2.12059
3.40604 5.67179 -2.59313
-0.630343 -0.798862 -2.40069
-3.51487 9.52748 -2.63948
1.25155 0.245039 -9.54831
-10.5088 -0.330243 2.38843
5.0365 -3.18916 7.48711
-3.32022 -3.13404 1.55182
-5.50623 7.53545 -2.93086
-3.41581 -1.29943 0.359801
1.23924 1.11206 -9.28223
-4.37146 1.85122 -4.82179
3.12587 4.88196 4.51842
4.4308 -0.918123 -1.213
-1.91151 0.0195034 -0.1969
-0.721854 0.0230411 0.698826
-11.4128 1.41538 -2.94197
1.42734 -4.0324 -5.41392
3.58197 5.10657 -0.967545
0.394875 0.329064 7.59043
1.86641 0.286566 7.10842
0.378882 -1.41284 0.355369
8.85132 -0.279385 -3.31836
-8.15537 -1.82511 -0.914228
-4.17252 -1.90146 3.0513
3.56874 -3.26828 -0.538393
-2.66975 -0.709742 3.28529
3.91478 4.30745 -5.99397
-1.6695 1.44398 -3.63174
-5.34071 2.9953 -7.03029
-1.7958 -2.03092 -0.377805
0.556772 -2.58801 -0.706079
-13.3406 0.0048458 -11.5036
-3.33211 1.38926 1.28323
3.28889 1.66779 -2.0618
-1.43315 -4.11077 -2.55104
-1.58188 -1.29945 -4.02353
-3.53663 -2.36816 3.33178
4.87528 -4.86853 -1.0399
-6.20943 5.41825 -3.28751
4.19557 3.30922 5.38086
-0.689609 1.36054 -4.51991
3.27673 -0.216912 -1.64014
0.378585 2.78887 -2.13841
3.08355 -1.37927 4.79208
0.77523 14.3675 -0.629956
0.735153 3.63545 -5.60507
-1.70884 -3.11786 -0.211662
-5.36894 7.8431 -3.2223
-3.52297 6.20242 -3.62811
-12.2142 -3.53907 9.81813
-8.36311 8.50712 4.69886
-1.34604 -7.53217 -0.625593
-2.33791 6.23697 -3.19598
9.34012 -1.62483 1.61187
5.43384 1.00121 -5.16907
-0.338592 8.60242 -3.83942
-1.17737 -13.4823 -0.730714
2.96415 -5.77737 3.32344
0.0417739 2.66575 -3.89689
-0.646159 -7.2553 0.7781
2.03242 8.48601 -5.20926
2.5872 6.63564 -2.49601
12.4578 6.65406 -4.06943
-10.8625 -2.49483 -1.25873
3.20456 -0.372111 -15.1417
5.07889 -3.46597 -3.26646
-8.79094 0.522019 -3.59566
-2.75114 3.75055 -0.826403
-6.23584 3.14576 12.5586
0.0698338 -1.37548 3.89293
5.28425 -5.47235 2.64775
-1.22147 -5.18208 -0.509757
8.21094 -3.47014 -3.88221
0.527055 -8.18327 3.96469
1.33425 1.11038 2.98704
-1.27428 -5.83728 3.44886
-3.95939 1.27422 0.582478
-2.39093 1.54139 6.93338
-1.66505 -10.0243 7.22034
0.959117 2.6214 12.0196
-0.628723 1.09952 3.893
-4.38092 7.16785 9.28246
-1.64835 4.59151 -2.23041
1.89423 3.66182 3.02181
-4.61614 5.6995 6.30412
-4.00109 2.2288 -2.48263
-7.99068 -8.22094 -5.22492
-5.19788 -0.979959 2.53465
-5.0203 -3.16618 4.77339
-3.25466 1.21408 -2.08725
2.55165 -2.70262 -1.45142
-3.53799 4.148 0.09519
2.701 1.7877 3.417
1.49725 -2.75497 1.40329
-1.40981 -2.30627 -6.5017
7.33517 1.70287 -9.89645
3.96173 8.05672 7.10331
2.1775 -3.69706 -9.22919
-0.306378 2.14175 8.88774
-1.24727 9.88836 -15.0863
12.799 -8.11451 -26.206
-23.6282 -21.777 8.36495
-10.2407 -9.3993 -4.68183
-2.57273 15.9334 -20.4311
-3.48896 -9.09194 8.77187
-2.31115 -10.3543 -10.2865
-14.2924 0.537526 12.1742
-15.989 2.65952 -10.4859
11.6806 4.66947 -15.1341
0.896378 -19.7298 4.9794
10.2992 -4.25676 11.8261
-6.41114 7.46099 -23.621
-17.0193 10.9689 -23.9675
-8.32924 1.8444 -9.97141
5.64533 7.85066 -7.9489
1.77726 -6.55896 -5.50146
2.84176 8.91566 0.873011
-3.10782 2.39585 -5.14098
8.81171 7.75465 7.45591
17.0287 -1.53903 7.54967
1.09812 0.493874 6.39974
-22.9524 3.79285 5.9362
10.7243 -3.04338 -4.03448
-18.3429 -15.2763 -2.62727
8.44565 2.80324 13.9546
16.9176 -1.07164 -1.12863
21.2046 1.20999 -16.2869
19.0672 13.7638 -0.572591
9.08881 14.4182 4.95567
27.8042 -17.9505 -3.67217
1.2249 16.9857 -10.9359
6.86701 -6.64296 16.6214
13.8309 -6.89417 -9.45292
-20.8276 -7.62441 -20.8837
20.6719 6.40544 0.550575
-14.5094 10.6606 -6.38688
3.98025 -13.6904 17.281
2.51656 -0.764846 3.85117
-12.7141 1.06675 7.27115
-10.6972 -8.76093 2.18124
-26.9776 -19.0043 0.869824
3.4778 -2.95459 18.1019
-12.5043 3.31819 7.61308
-0.84576 6.35293 -11.1313
7.18782 -13.7298 15.6942
0.643028 -9.45698 4.53736
-26.2629 -1.98042 17.9742
-11.7724 7.21812 6.65092
-8.35563 3.81995 5.3649
-1.03833 -9.33667 -4.45822
-2.91495 25.8668 5.78077
-7.49892 -8.03951 15.2788
3.12153 3.08636 -0.404379
5.2891 -14.6637 -8.05476
12.3875 11.1158 -15.8071
7.40101 13.0586 6.54555
7.20301 -4.45301 -6.6813
7.65287 2.25984 -10.3273
-20.6954 2.77538 3.51457
14.2943 -1.51949 6.47978
6.98653 10.3793 -5.4017
10.7093 24.1684 -9.76502
-14.0861 11.4241 -15.5788
21.9067 -3.57012 9.54217
-0.28322 3.97298 -18.6862
22.4367 -4.7395 -0.153722
20.0478 -6.57166 -8.92029
-2.90437 -7.55268 -14.2122
4.73929 3.42385 -0.524825
-3.81098 -19.4247 -2.29117
-3.12967 12.0591 -0.161932
-0.508898 -30.5648 -4.79434
-10.8862 1.23281 -1.58801
14.8073 -2.46538 8.57359
-5.24537 -12.9297 10.4975
3.37457 20.6889 -6.32394
-1.22623 -3.50693 4.57949
-6.39993 11.0355 0.0578287
7.45979 -17.0407 4.92811
14.2159 13.3607 -1.10552
-2.5163 1.65355 1.7906
-2.28122 -8.10182 9.31511
-11.6145 12.696 7.56668
-3.31011 -15.0141 -5.59454
19.8412 15.0888 -8.50554
-11.0865 -2.96838 2.82995
-0.75566 17.0622 16.5053
3.05445 0.575629 24.2008
-0.0254432 -14.6421 14.8414
0.848071 -10.0089 5.16844
-11.5002 9.72405 -5.8176
10.7007 10.265 18.4623
-4.26999 8.50102 1.30926
-0.497841 -3.38321 12.7459
-7.37772 9.77928 -2.72694
18.6178 -9.21205 -4.40644
-2.39646 -6.65261 -16.2331
17.1601 -3.8042 -5.94035
-7.00375 -2.39721 -0.0578376
-6.99558 13.0999 -4.36634
-14.3058 -4.60746 -9.29802
11.0659 -3.88587 -16.3171
5.60779 -9.05236 0.578318
-16.2455 14.0729 -19.5209
-7.49538 -9.66898 9.21774
-21.8633 0.691452 8.43755
-6.24599 15.9372 -12.3813
-1.02619 4.36119 -9.86061
23.1682 -0.953632 -5.3678
2.55907 13.345 -11.0992
-26.2776 -13.4577 17.1576
2.09833 -5.80208 10.2529
20.8067 2.87115 -0.981227
19.4914 -1.09462 -12.473
13.6645 -14.0658 10.0597
-9.115 7.16198 7.08298
-5.71895 15.4655 1.18967
11.1397 4.37443 -2.09348
9.40909 4.38365 -1.35077
-0.646814 -23.8393 14.2259
-0.716985 -6.47365 -13.2531
16.5388 -23.5718 0.381472
-13.2217 22.6141 5.48951
-12.9734 15.8758 6.25301
10.7616 17.5085 -0.89168
-7.94079 8.3099 -6.42933
0.0383266 11.707 3.82953
-9.31725 5.50979 1.46117
-9.18167 -7.20217 7.04986
-7.40471 -6.29369 -8.25005
-3.77155 -13.5036 6.58514
14.4866 7.4356 -11.0584
-1.54957 -15.6253 -5.64919
-6.28817 -3.96743 -5.49327
7.56322 -9.00328 16.438
11.6562 -3.1896 -2.55801
9.81969 -19.727 1.37566
-12.1029 -17.9176 4.82403
7.4408 -14.2014 7.96409
8.44541 6.62321 4.77357
3.89296 -18.4619 0.866753
-17.6677 -6.47003 6.03891
17.5612 11.494 18.2193
-0.246803 6.26604 -10.5502
-2.4656 2.2787 -14.0817
-0.0702862 3.78144 -0.383375
-7.14677 31.4533 3.13109
4.95081 -10.671 -2.56112
-1.77636 3.43457 0.850707
6.61868 3.10114 3.5753
-11.121 -4.47862 5.65909
-15.0567 -9.62311 8.90854
-4.39526 7.23736 -3.32794
9.57808 11.5095 -5.28336
9.1721 -25.1223 -28.3
0.211096 -11.0963 4.23788
-15.3611 10.2908 3.46266
0.6667 -14.0822 11.2768
9.17249 2.74942 -1.28304
2.84605 4.83356 1.27996
-20.7794 5.58833 8.44382
-0.461335 15.1625 -3.01371
-1.24338 -10.4061 -1.9962
17.3919 5.4237 -10.1275
4.77852 -2.26356 -1.81173
-4.26852 14.6879 -6.58172
-2.791 20.5326 6.31508
9.11966 4.03818 -8.49286
-7.55005 -10.8017 -24.3426
17.7256 3.10672 -1.70426
-2.55518 14.7706 10.8244
-1.22305 -8.30813 -2.27207
5.92741 2.42114 -3.5636
-1.52699 4.46576 -8.12966
-16.029 -0.101183 -9.90176
-4.80156 1.77359 12.1297
3.21381 -11.5534 -2.04919
-9.94267 -8.38337 4.43082
21.2962 -12.0425 -10.3005
9.07607 -1.06989 -5.15294
5.06241 10.8105 4.4845
2.41492 3.42251 5.95562
4.61828 15.6685 -17.5196
-2.7214 5.87247 0.398386
15.6966 -5.00793 6.73791
25.7683 -12.6444 1.62411
1.46048 10.562 -20.0017
17.511 18.7932 8.35508
1.34693 0.737529 15.2109
-16.8211 1.75117 -12.1678
-0.566154 -14.1336 6.39632
-7.26624 -0.726903 9.34815
3.84111 -5.20028 7.05483
6.4845 -7.95851 8.15862
21.5279 -20.2319 -3.03947
-4.39356 -16.0272 17.2631
22.1798 -8.96339 -19.6575
-18.3062 5.48872 0.833562
0.766246 2.58857 -12.8823
16.9765 -5.47139 -16.0534
16.5994 8.33281 15.7188
-8.24485 -3.95716 -6.73707
4.53703 15.9999 -3.64618
13.5894 -4.03275 17.2762
-13.367 -4.64055 0.333008
-3.20705 4.05021 -13.0052
-12.1555 1.12052 -1.00165
-10.0925 8.06948 8.25882
3.4819 2.29717 -2.59136
4.48145 -2.20449 0.671885
13.7706 10.9171 19.0417
-11.3063 18.6831 16.2098
15.5927 4.18993 -2.00227
-27.3013 3.65075 -4.14549
-2.18846 -5.96804 15.2142
-9.21991 -2.57655 -13.859
-2.4123 7.56526 1.76312
7.46903 22.0749 3.22278
-17.5996 21.6072 12.9711
-5.14134 -20.7937 -7.11261
-1.63661 2.6018 3.76219
5.34585 3.73799 -12.9053
-3.72247 1.62394 -22.8415
-1.11689 -7.95771 -12.9382
-11.9583 11.8858 -16.0587
-9.56447 1.7398 -0.726797
-6.74902 16.3256 -15.6952
-11.5431 -2.26483 16.7382
2.96177 2.80585 -3.50318
-8.1186 13.167 2.55632
2.13609 -6.84817 -16.454
-14.5287 2.39619 -3.59182
10.4542 8.37398 5.56467
9.5555 -3.87959 0.175814
-8.78671 0.984193 -0.593414
-1.0948 -2.04464 13.4375
-8.94908 -3.51002 -2.09738
3.30991 -2.30569 -19.0639
-6.05746 -5.95602 11.6018
-1.19092 13.3281 -1.44916
-11.8637 -3.48141 -7.15137
0.161581 0.367753 -4.83862
-21.0171 18.1389 3.62322
-4.88101 14.0994 8.98698
-11.758 -5.65314 -13.501
-2.42487 16.0602 1.19427
-1.77081 -21.043 -2.71554
-3.28634 -5.25897 -17.504
-17.2788 -13.0929 -11.3061
12.6893 -22.2912 6.32193
-5.79955 10.4074 -19.6937
10.0575 9.77311 16.8927
-4.8487 2.38824 -6.02725
-12.2753 -0.546491 -6.18584
-18.2446 11.6947 4.84609
-6.06838 -0.12407 -8.31299
12.346 2.05423 16.5988
6.78788 1.13731 -13.432
-8.42066 2.3147 1.50972
-10.8166 -1.56904 6.75122
9.64964 8.01483 0.590634
7.77783 3.56783 4.07445
9.05294 -16.2482 10.3514
-19.3296 0.663809 2.21295
10.222 -9.66228 16.758
6.72797 -4.03508 8.83362
16.3343 -12.44 -10.4508
-17.5737 -22.7545 -14.4178
0.155862 2.41759 -12.5909
1.85814 -1.12841 4.78545
-14.1243 20.5074 2.28088
-8.32391 2.86428 -21.1637
23.2129 -8.16338 -0.746706
5.92396 -8.32036 12.7272
-2.1242 13.8658 -3.65663
-7.99559 2.22555 -19.1702
-10.7009 -9.22243 -2.34763
7.88184 -13.7412 9.49522
-4.57232 5.57598 24.9238
5.3512 -8.12935 -2.92604
0.448568 11.0965 -9.24155
-10.2987 -11.2768 -5.15766
-10.4295 15.8653 -15.4573
-9.42118 -20.4137 -22.5165
3.57303 6.71719 3.5535
-22.1212 -10.5941 7.43973
10.851 -5.05837 -10.2126
11.2741 -5.47864 1.76598
14.7228 -11.061 -0.128764
12.7461 -7.44819 7.28831
-4.84753 -4.82452 12.5617
-14.6597 -2.39703 -7.36372
11.4026 2.87781 -2.09019
-14.0373 0.88577 -1.66891
-15.0647 4.74704 15.1245
25.3788 3.28522 10.9586
13.4587 -0.414214 11.3174
-13.6657 1.14991 -9.52416
-0.973366 1.12575 -9.92081
-5.71354 7.21791 15.9098
8.85994 -0.574889 -5.64432
3.9724 1.64452 3.74919
14.029 8.46949 -15.6599
17.4469 0.438369 1.01729
16.6134 -5.60658 -7.63342
-1.10036 -15.5571 9.32666
-6.17016 -15.471 0.0101159
-8.21194 4.146 14.5375
13.1227 -10.0693 9.53703
13.4054 -23.4354 -3.7796
14.283 0.918306 -9.64363
6.88698 -7.96512 -6.19682
2.9922 9.41762 1.22289
5.77932 7.56763 -6.97724
-7.56989 -14.3939 -2.34244
11.372 -6.21177 -1.94289
-4.44149 -12.675 11.9089
-19.9687 -11.8576 28.9278
-6.1596 3.85507 -6.92129
-6.39032 6.06225 -10.0493
-1.28403 1.60575 -10.7541
-7.04567 4.20901 20.9746
-8.56288 3.17609 8.66723
11.7396 5.12944 2.52389
-13.9232 8.90579 -0.580813
-3.8197 1.01915 14.453
8.82083 -19.7042 -6.76448
-5.52016 -0.251056 -8.35973
-30.2457 4.54345 -1.05596
20.1279 4.27838 13.1356
-3.05068 8.61161 -11.5796
9.06417 8.05623 -13.8128
4.6117 3.68006 7.57612
3.16 -9.92132 10.5468
4.05946 0.0792732 -3.63539
-20.8245 13.5621 13.9552
11.8988 7.03082 1.17265
-13.0072 -6.14659 -20.3181
2.20782 -0.223637 14.0016
-25.1474 20.7444 -1.87929
7.65391 -29.1498 0.90748
-1.20214 -7.41108 5.07236
-4.30602 3.5302 -17.886
3.53831 -6.87593 -19.7651
1.52787 -4.65211 -17.7665
-5.72694 9.255 1.23732
-6.08639 -11.6697 -3.51531
2.02292 0.555904 26.2264
-10.3892 1.15117 2.45282
-24.3085 -5.02513 -5.30482
29.7717 19.1907 -6.71771
7.04891 6.31573 -13.019
-2.03103 -8.11016 7.44702
-9.96954 -7.57581 5.66543
3.37522 8.13935 -0.424805
13.2281 -6.80491 -5.43539
-2.78139 -26.3297 -3.70298
-8.51562 -23.8597 -12.4445
9.92987 13.3753 25.7574
-5.37382 7.99265 2.79624
-24.1447 -10.6791 7.70148
5.60704 -14.6756 -11.1591
8.48553 5.93195 -8.87581
-5.16615 -9.2695 -1.5252
24.0995 -4.20161 -12.5078
-15.9764 -12.0283 -0.666744
1.75616 -4.78475 9.45594
21.5841 4.35537 7.71586
-3.0423 4.66896 6.03505
-1.30625 -5.73743 10.6467
-16.4948 9.11755 -12.6155
-8.4226 0.54796 -6.13128
21.1668 8.94928 -0.577209
19.2502 -2.09351 7.64382
-1.25754 0.430577 -3.45294
-17.6304 5.84481 -0.769634
2.02421 -26.5601 -19.6816
3.44198 -6.57758 3.8491
-5.47134 8.91243 29.0444
10.5614 -24.0147 9.04056
2.67782 9.39565 1.11267
-10.7034 7.32215 -7.55482
-8.2289 -2.80446 8.99563
-22.2559 -9.82333 0.902867
8.58769 3.17895 -0.0861812
14.8255 -12.0892 1.41599
-7.84287 -9.63247 18.2045
-15.3317 0.25882 1.19766
-13.9276 11.0898 3.09671
5.65942 1.51047 1.36264
38.5415 2.48062 -0.698451
16.939 -7.5734 -0.928906
3.44195 -9.60387 4.48854
-9.30591 13.897 -12.3045
2.37821 -6.07907 1.40412
7.46917 15.6195 -19.1466
2.28496 -7.82455 -1.23065
7.64371 -11.2798 4.78998
11.0116 9.13743 -13.2408
-16.0688 8.61791 16.645
0.768124 -9.83353 -4.0329
-11.3051 16.5001 -8.43024
7.19711 2.9241 16.5964
1.4283 -2.25164 4.62155
1.22593 2.45658 -5.73666
-13.6853 -1.19761 -5.63227
14.9959 -22.6993 -0.967641
2.0855 11.6103 -13.1828
-11.7761 -0.229712 0.508319
4.29453 -12.766 -2.8099
-1.81775 2.48849 9.09072
4.01791 7.53479 -2.1669
1.93319 -12.1927 -13.6477
6.63757 -4.04675 -12.7638
9.81734 -3.09207 22.3811
4.05651 5.00468 -4.72473
7.63796 2.62709 -4.92219
3.61762 10.4721 -9.39403
17.2584 -16.2395 0.981818
-4.09488 -10.9362 10.1498
-10.9281 -5.87271 -8.69982
2.17445 4.92558 8.53489
-20.0577 -4.35599 -15.8585
-15.7576 2.50184 10.1752
-7.21658 -3.65951 19.1056
-19.8542 -22.7316 23.6984
16.1734 4.68061 5.05526
2.32564 -21.6937 3.85898
6.69626 -5.77895 -3.3345
-16.7429 6.48697 -5.99301
3.50536 -13.5507 2.36735
-17.6405 16.0279 23.9769
-0.0175844 4.47284 -5.7441
-6.53559 -11.526 2.20038
8.70266 -1.692 8.24873
-16.0796 5.30009 5.61099
3.73634 5.12921 0.348409
19.6187 8.00683 -17.6446
3.20074 4.13572 8.67913
-13.1115 -6.52795 -21.0995
13.9202 -15.2914 7.40606
21.5919 -9.90265 -10.5569
26.0286 2.4796 -25.858
2.864 -0.124758 -2.51123
10.303 0.651512 -5.97992
-14.4709 7.08475 2.3114
18.1699 1.02167 -8.9242
0.662951 -0.651652 12.9465
12.015 -1.44445 -14.3583
-11.75 3.62073 1.08384
0.648063 6.08381 -2.89161
0.151607 -7.84654 13.0603
13.1815 -4.31198 3.80342
-3.8236 17.5409 4.1997
-19.261 -9.38859 6.84561
-6.53107 -9.07144 1.18947
13.4198 11.2983 -12.2091
-8.97605 4.20161 1.7849
5.39628 -7.43094 -16.8377
-2.76313 2.66688 -10.1545
-14.2046 6.6046 -20.5948
2.99702 -1.68504 -1.08411
1.22743 -10.4433 -7.10069
-2.55226 -16.9413 -13.5169
-6.83304 2.25578 2.24368
1.1638 -0.521308 1.37804
23.022 -5.81582 -10.4607
16.6568 0.153654 12.8061
-4.73371 1.86242 11.1793
-18.6338 -4.76759 -0.497241
-1.20188 7.60189 13.8199
15.3382 -3.49462 6.01747
3.11657 -1.16685 -0.971127
4.20908 18.0277 -12.6519
16.324 -1.34862 -5.97801
-1.42446 -14.3811 -11.5087
5.50208 8.80864 13.9927
6.36255 5.99419 -12.8358
-12.8615 6.14531 -2.44861
7.08426 2.66627 -5.35337
-10.5617 19.261 -3.87379
-9.02023 14.6292 -4.32244
-12.4255 6.75004 -2.07339
9.20426 6.88129 11.4326
9.06884 9.55179 -2.62606
-3.78908 3.29141 3.5686
-5.69563 -2.09727 -0.370748
13.6899 0.247685 -14.5262
-4.72965 2.49341 6.35221
-2.18667 2.127 -20.89
11.476 5.67175 -19.1231
-5.37461 -11.4659 -1.21227
5.74711 5.27952 13.4413
1.32095 -4.84524 -11.3888
16.6605 11.9053 -10.1868
15.047 -4.82959 2.93346
-4.29395 2.4514 -5.31077
10.9069 -6.59917 -8.04092
-4.96661 5.63787 -17.6623
-3.3047 12.9641 14.6735
6.40248 -2.93802 -1.39273
-13.1856 7.62331 5.51318
-5.75951 10.677 -3.52504
-5.91693 -7.47126 13.6798
0.472019 9.34052 0.515138
-5.90244 -0.199166 -12.0376
-5.26814 0.134093 -1.86141
5.03135 -1.70684 -21.1531
8.46002 -18.2014 -17.7188
8.74425 6.34314 15.2244
0.046683 4.01952 6.03893
-14.3724 -10.0563 16.6538
8.54927 -7.13214 10.4733
-4.99735 -19.8895 8.91922
-18.1724 4.841 -14.3103
-4.85018 0.79062 -9.47751
-1.08716 10.4409 5.60553
7.79266 8.9365 -2.43492
9.71559 -9.75446 5.53301
-7.76842 -0.518026 -15.9854
7.09956 -1.35459 -9.89632
1.02537 -6.74691 16.12
12.9524 -9.91336 12.9596
17.1677 22.3064 -3.76436
7.49519 -12.9994 -6.81216
-3.96112 6.81126 -12.9542
12.5142 -0.595457 -10.1325
-1.35358 -0.338837 -2.48923
-9.98168 -13.3878 -4.05108
2.13569 10.3781 0.661151
14.1648 1.06198 -2.85429
-2.70718 24.3957 -10.1203
16.7682 2.44614 11.1057
4.07869 -3.73936 5.90397
-8.20268 3.65275 1.58332
8.49911 -10.4219 8.03338
-0.597675 -2.39418 14.7397
-15.7656 -4.61072 2.52961
-4.73128 11.4678 14.1713
-1.09263 6.18573 5.12509
-2.24842 -15.454 -8.29176
-4.02128 3.31384 -20.4975
-10.9949 3.00379 -13.3259
-9.0945 -6.97358 1.63044
10.8277 1.71919 11.1982
-14.1321 3.83322 4.62188
0.448344 0.854034 -30.115
2.40398 -15.2563 -28.8462
-15.6367 -9.51024 -7.5296
-1.74866 -1.69367 9.6002
5.73389 6.11699 -9.73959
-5.86489 15.4762 -7.10096
-13.8252 0.111698 -3.66733
6.89513 -1.8768 -1.96202
6.76397 -12.6288 11.7462
-8.01726 -2.15389 8.92782
12.9162 1.57123 1.64871
6.49248 -4.63321 0.767056
-6.37758 -8.15951 -7.26039
9.64819 -0.352817 -3.88123
-7.21663 0.840942 -18.3906
-3.95806 -8.74256 -9.02369
-3.96205 13.3557 -6.64459
-15.2861 -0.836488 1.73914
11.6977 -3.9327 16.5401
-1.18052 -0.315415 3.37977
6.41456 14.4328 10.9724
-12.4077 -3.10179 1.44906
2.86672 -10.5449 -11.7964
14.9961 14.8586 7.19046
-11.5357 4.30195 -3.35069
-4.32244 -2.4568 -14.2547
-22.7755 -21.4536 8.43767
-14.3489 6.37264 5.00803
6.18998 -9.42273 -0.78846
8.24839 5.84154 -0.925556
-0.200256 20.7423 -20.1827
-16.4718 22.8606 -3.19431
-5.79449 6.92169 13.5106
4.17841 -18.7766 8.99707
-13.7635 0.0921559 22.2014
-0.170625 3.12427 4.45624
-8.00941 -1.24557 -4.95428
13.7075 20.2019 -17.589
-9.42786 -0.569135 10.0276
7.23129 1.32749 -1.0224
10.8904 9.71034 18.5849
-11.6335 -0.603099 -2.11725
-0.325904 1.31565 -7.33031
-9.1756 -4.92792 2.20517
-15.4833 -12.3889 -8.89535
8.61966 -1.23506 -9.77063
-5.44998 -4.41704 -12.3297
-12.5458 -2.23871 15.831
-8.24175 -10.2926 -1.16037
-14.6666 2.78552 -6.64719
-20.4214 4.65323 -6.88545
2.47068 -0.328372 -2.80862
-5.63364 -1.6756 -7.71858
3.54526 8.11309 0.621466
-13.6156 -4.04992 -12.3016
18.0161 2.8864 -2.9985
-13.7654 -6.45111 6.6402
-2.26214 -9.81114 -4.08606
14.7077 4.10347 -4.26201
10.0184 4.71528 8.79156
-3.7629 -4.50142 10.515
4.33474 8.82166 1.46682
-14.3378 -1.94233 -8.699
6.44007 18.3302 1.98474
6.53512 -15.8629 -0.260979
-13.4261 10.0181 -5.94707
-9.71709 -2.62352 15.8592
2.84063 10.805 -13.0727
6.68386 7.2752 -6.31527
-3.90734 12.889 3.56077
17.5852 5.5333 -15.6787
-14.9631 -3.27293 -3.45438
-0.287693 -14.8173 -6.29717
-8.16633 -12.8826 -17.9998
-2.15185 20.0945 6.79614
-14.4316 9.83185 -7.50627
-15.3761 -3.82817 6.26024
-12.9061 0.0287945 1.88926
-6.92176 1.50341 -9.90116
-0.0549119 2.06485 27.6935
4.02993 -6.73004 -5.25107
-5.38176 17.891 -21.3297
5.5273 0.101792 -10.3596
-3.86388 -15.1481 3.66299
4.43711 -3.36411 9.07426
-8.31028 6.46327 0.67105
-4.78709 -3.34131 3.3778
2.50553 -18.9137 4.10081
-25.2403 5.77159 -3.75073
-11.0659 -3.00478 19.2096
3.50673 -7.79953 5.9951
0.197601 14.4116 7.42611
-10.1924 4.34093 -0.794874
13.5414 13.6918 7.95379
-11.7768 -9.9036 -10.0563
-5.29394 0.161683 -12.3114
4.83856 26.0313 12.4339
10.0116 -5.92076 -11.283
-11.8874 14.5889 5.9737
-3.52654 -0.97472 -7.85752
9.41966 -0.112466 2.84991
-8.98698 9.29684 -1.54692
4.31422 -7.15797 -3.55492
-1.71147 -1.09794 3.07096
-5.71119 2.09118 6.83007
-5.6238 0.487626 -9.96605
20.6099 -14.6646 4.31338
-13.1991 2.62553 13.1786
9.647 6.51687 -14.8205
-11.4541 -7.52707 6.85635
12.1112 2.30992 -4.16479
-5.05124 -2.45934 9.41401
-8.48848 27.534 -13.3976
8.10289 -5.6195 -5.36223
-0.795291 8.33842 3.5235
-21.9103 -3.40596 10.1364
6.73982 -9.24904 -6.73984
11.7062 -23.0901 9.1475
9.20069 1.04034 5.48583
20.4405 5.54974 -12.1536
5.78689 -7.86148 15.8416
27.9247 -7.48436 3.48061
15.4217 -15.4815 4.18643
-7.63221 5.49277 12.568
20.6358 20.8792 -8.83097
-21.3107 -14.8408 5.95219
-3.58769 8.81041 -12.534
-17.1487 5.77408 5.99476
-3.47588 -15.5089 18.6811
4.31287 20.6208 -29.328
15.1948 0.326952 7.38419
-1.42102 -7.10217 14.5081
1.39319 1.11191 0.230191
-3.85365 9.03802 2.80297
0.58777 1.09377 -7.11225
1.7563 13.4017 -14.9884
-19.5879 2.02602 1.1813
-13.1695 -5.27208 0.54388
16.3372 -7.15606 19.8975
11.0103 -1.30877 6.64346
-1.24784 -16.9738 12.4854
24.2547 6.17622 -14.1191
-7.99524 -6.85208 7.66294
0.344703 16.44 3.76989
-12.7016 -3.94239 5.02591
-13.9905 -3.19146 -6.93233
13.2526 1.03762 -10.2289
-4.01536 -24.3521 24.1083
-6.62871 9.53625 -8.23867
-17.179 7.06851 7.71356
2.77627 2.86338 9.77951
15.3347 -3.99609 18.6772
0.190245 -17.3326 7.62438
6.99451 -9.37991 -10.8155
5.08927 10.653 6.82113
3.05092 -9.38287 20.3957
-5.4556 -14.1843 8.28949
-4.02458 12.9212 8.06445
7.36215 12.7078 3.26728
2.2809 3.51133 -2.42923
-5.66942 5.29547 1.28501
-7.13669 13.2305 7.29684
9.14354 12.3188 15.4562
0.459165 -23.266 -1.66058
-8.90293 -2.57604 4.08189
16.2857 -13.0425 -5.57296
20.5779 -4.52391 24.5729
11.2766 0.0145623 -13.0845
-17.5043 -3.11143 -3.28355
-15.0391 -15.2078 1.24771
5.20414 -10.4298 8.06848
4.92504 18.7241 -11.4118
-14.1275 10.6636 4.18804
5.8374 15.2725 15.132
-19.2493 -12.9705 8.51786
10.322 14.5836 -9.62916
-11.3718 -0.0300403 18.2685
0.865915 1.88887 -8.39321
-19.7778 3.89724 7.76915
-8.7899 18.8189 1.06232
-12.1562 -0.786879 6.04631
-15.7881 -7.5477 -1.4583
-2.5497 5.67989 -11.0819
11.5052 -5.04449 -6.01121
1.99245 16.2965 13.44
-9.6778 -3.34606 11.0374
-1.3669 13.5934 3.25724
1.98891 1.596 -4.454
-2.33707 -6.0723 -1.17323
2.12061 11.761 23.8913
7.46929 3.86819 -12.0318
-3.45577 2.15535 0.477094
-4.78751 -11.0142 2.42484
28.7157 -2.32032 -20.2038
-2.78013 -19.3548 -17.2718
6.0991 -6.13684 -14.4657
9.71736 -0.396529 -2.04566
4.65789 16.7956 -5.7262
-4.52291 -13.8482 5.19592
3.26206 2.59113 -28.4763
3.87765 0.854389 -0.529151
5.82131 1.34633 -7.45105
-8.37851 13.3295 7.29332
-13.2007 -6.68542 11.1181
-1.79348 18.6389 -5.75273
1.76278 6.93886 -1.05423
25.0544 1.24324 -9.50381
17.1471 -19.7117 9.59352
13.1894 4.03055 13.651
12.6538 6.32542 0.615742
15.3264 10.9521 3.65946
-1.24852 -23.6542 -3.51986
0.559798 15.4344 4.18246
25.5483 4.4488 -3.36627
-3.07529 -20.8942 21.1445
-11.9429 16.4273 -3.06129
9.69186 7.14592 -12.8626
1.95233 4.74959 18.6755
-0.183628 7.67647 -2.49134
12.6003 13.661 -2.08958
-15.9245 5.62415 15.1027
19.6612 -5.32055 0.9269
3.49282 10.0861 -1.07149
-12.9739 -3.3868 22.4972
-3.05998 5.83787 -0.264745
5.89702 3.93711 3.68425
-1.83918 13.3376 2.53819
-2.60198 -2.69162 5.15666
5.20659 -3.12803 -17.2707
-0.766396 -1.25199 -17.8165
17.1889 -15.2237 9.62252
4.79955 11.8193 -2.73371
11.0667 8.64809 7.79576
-2.28216 15.9241 -14.1453
0.597108 6.38825 12.6639
10.3604 11.4485 -7.13083
-15.1657 0.281359 -18.4137
17.9591 -6.46158 4.0027
7.14696 -10.7711 8.64419
-5.58824 21.8498 -3.32956
-9.79836 -6.01485 -5.86227
-0.759316 2.91369 -1.05452
2.25102 -6.13186 -12.5024
1.41487 7.09022 1.17047
17.159 -2.23103 -22.5512
9.34132 7.43979 10.0465
-2.71846 3.52113 -5.65071
-6.48345 -14.096 19.7535
1.52441 10.6898 -20.4123
-8.26838 -8.4364 6.3042
-2.93521 -4.89719 7.18974
-10.7071 -11.164 12.0792
4.9385 -26.6659 -3.6988
-11.1511 -10.8571 17.2017
10.7073 4.07929 12.8577
-2.45277 -3.39379 -5.19035
-6.50807 7.97874 15.9787
-16.5647 -8.97407 3.93003
-5.8127 23.0656 13.0261
3.2666 1.16261 2.23559
2.09268 10.1068 -14.5911
-3.40489 24.2524 7.91728
-13.1857 1.79917 6.4456
-6.40479 -11.8906 -7.32697
4.41741 9.30301 14.7656
12.5191 3.59713 -10.127
5.68264 -11.5654 -5.36854
18.8326 -6.10256 -6.24388
15.4082 5.69578 -2.08907
5.94189 3.44845 4.85839
-8.8001 10.1846 -2.07793
5.43667 10.7515 6.69043
-26.0251 -10.3214 12.7734
-12.7642 6.20759 5.03087
-11.2182 -3.16842 -6.69451
-0.395021 -7.34442 7.89699
-19.5761 -4.52936 -3.68485
12.4217 22.032 11.2281
-5.43857 2.41038 6.45196
-6.06815 12.7307 4.41949
-22.7764 -8.08031 2.87139
22.2696 -3.35689 15.8264
5.00357 2.67415 -5.33073
-18.1768 -0.205216 20.3931
13.9231 -9.94266 -24.5478
11.3902 12.9037 20.7358
21.6634 10.2779 10.1551
3.29944 13.1686 8.92465
-0.497989 15.0949 6.04512
-6.3072 2.28616 -26.6017
20.7864 -2.035 -14.8226
-3.96394 2.48872 -27.1491
4.55474 6.20516 -13.5706
13.2153 -1.79818 -6.29687
5.20781 -18.5398 6.49015
-4.50647 -5.02563 17.4026
-13.8894 -4.26531 10.0819
22.8001 4.49531 -3.85208
-22.0578 21.3663 -4.28742
-17.5912 9.94308 -4.82119
8.73915 -12.6467 -4.77069
-2.76216 -7.66974 -2.21825
-6.22589 -0.874291 0.141417
16.7379 4.36108 14.5432
-1.5236 -12.5951 -21.9042
3.87971 -6.40556 -22.012
1.83044 -0.433248 -14.1174
12.2131 -2.21709 -0.430723
-4.38998 -8.01565 -5.92244
9.58805 9.27779 -5.62851
2.56339 -3.44363 -14.8466
-6.44088 20.5196 6.63201
5.76344 -4.75682 2.74651
17.3545 0.402721 7.99047
3.4282 -24.9118 3.43643
-3.6133 15.9327 -2.68552
6.80139 10.2121 8.33321
5.14806 -4.26766 -7.80951
-7.07238 -9.12359 11.0633
-5.34092 -2.45827 19.3621
-9.29396 15.2313 12.9445
-2.2952 8.19756 -5.20845
10.8964 -14.926 16.2328
15.6204 2.77687 11.9543
-9.94041 -16.8645 -4.88095
-10.3625 -3.4986 21.2408
5.88937 11.8447 -12.6225
-2.95179 10.1618 -8.81285
-8.67873 25.4351 -0.483136
-9.5854 12.373 24.3142
-17.0017 17.6163 3.43187
-17.5685 4.7254 -6.95541
-13.0008 12.7729 -14.676
-6.24342 -13.0868 23.1509
29.1317 3.43258 -22.1025
-6.20111 14.3381 -15.5829
-2.53343 0.109997 -29.9467
2.0551 -17.7366 -9.18857
-6.92677 2.4919 -14.6951
23.6626 -8.1115 1.25536
23.3024 -8.3844 -3.70636
-5.54459 -9.68138 -8.79649
10.7297 7.40922 -2.70795
-12.6642 3.98559 -11.6069
2.57788 -1.94533 21.5471
-5.29188 7.14152 -6.09994
13.4897 13.8591 6.6698
3.66344 23.0788 -2.56112
-2.64641 22.0308 -16.5938
-13.7778 -1.77068 2.12278
2.67115 -18.674 4.97141
-2.34733 2.87676 3.30204
9.21705 20.4211 4.69579
3.61512 11.3769 -9.3532
1.56929 -8.91729 -16.3833
11.8112 12.0717 18.8699
-14.097 4.7541 7.44296
9.61255 -12.9621 -1.728
-8.2741 -7.18768 -2.59563
-19.8574 5.55412 3.82741
-1.99862 -0.538955 7.66629
-34.6107 4.17943 12.2065
-9.66375 0.738608 -12.6787
-18.6216 14.0502 -12.4133
9.00628 -12.5887 6.73805
-8.37127 -3.70273 8.10056
-9.22027 1.41788 15.1522
1.21416 1.1575 -23.8736
-8.00346 6.56674 11.9011
-4.26999 7.85782 16.1984
-19.9452 2.51258 -1.13356
-15.4997 -16.0351 -4.85694
5.42282 19.435 9.52028
6.7507 5.74115 -16.7719
-0.841597 2.17961 18.3761
2.98268 -20.0906 15.0095
1.99352 -3.24245 19.5066
-13.6568 -0.487428 -16.1027
30.514 -10.8405 -4.68571
-7.84118 -12.1919 -0.593654
7.65294 6.21263 11.8863
-9.23658 -3.41558 -4.29147
-2.84511 -0.879219 11.7893
2.3051 5.49943 -10.0961
15.3209 7.65776 -15.4461
2.93975 -11.4852 -7.00881
17.0288 3.86276 -5.49207
-0.793689 2.60953 -2.8909
-3.06691 -26.8948 8.6145
1.59191 -12.8829 15.9228
-7.18837 -15.1487 -15.6226
-2.03297 10.5221 -16.2928
24.071 5.8888 9.09708
3.71572 0.106659 2.64216
-13.2812 -0.163082 -3.47343
-32.5079 -6.76312 -11.4499
11.1001 -6.17688 -8.34179
4.28338 17.6592 1.10886
18.7442 7.63506 10.8045
-9.97032 -5.66674 -6.43331
14.4284 -8.74658 -8.02766
11.1107 4.31375 29.4061
-6.3382 4.09001 10.5285
-13.9858 -6.82347 2.84591
-9.1616 -5.74469 -16.7601
10.7804 3.01199 5.30074
-5.61372 -6.88769 8.70074
10.7629 -11.4251 -2.33307
23.9717 -8.7576 -25.0852
-10.1174 3.83829 -13.1234
3.55633 -2.94508 -3.26618
6.56364 13.4684 13.3633
12.3276 -4.07906 -4.84044
-15.4183 -1.38291 7.56608
5.15418 -10.6329 -3.47499
10.2535 8.89394 16.1112
36.6071 10.6047 8.36872
17.7095 8.12383 -5.80758
-11.6517 5.23273 4.34139
14.4487 -8.66719 -9.18537
13.7753 8.7157 10.7681
-1.88838 7.06821 -3.36418
-8.88523 14.6355 -3.64172
-7.98106 13.7525 -1.07323
-0.323372 6.21734 5.99809
-9.74212 -5.61475 8.02759
-12.3318 2.50123 -8.70816
-9.30821 5.02414 -2.81514
13.451 18.243 -13.8211
-12.2718 -17.2878 -1.80358
8.71011 9.21823 9.36702
10.8954 14.913 -5.02359
8.05056 -3.97324 0.706373
4.66268 0.556876 1.57518
-25.8726 -17.8487 -7.01969
1.87697 8.63791 -8.79722
2.61025 -7.26148 -5.08681
4.05281 -1.8037 -9.59115
-9.22228 3.15784 -12.5455
17.918 14.6539 -21.8718
-5.99734 5.84417 -11.721
-5.43439 7.19444 6.15968
-3.00203 1.43899 12.851
-14.098 6.73664 0.868163
18.8956 -2.71346 24.4095
-10.2046 1.98361 -1.24314
11.4946 12.167 -9.37109
10.1464 -0.989566 2.8191
-21.9667 3.14471 1.87188
-5.17971 10.5151 30.1758
-5.58359 -1.26889 7.31399
-5.73031 0.843259 -10.3286
-11.6407 -3.57207 -4.59435
0.8049 6.4438 -7.84271
1.19523 10.3821 -28.7882
-6.60114 -14.3194 9.39537
-4.97568 -0.522357 -0.679442
-0.785821 -4.12942 6.64111
-3.99591 19.5833 -13.0053
-0.177296 -7.64367 20.2023
-3.01145 0.651713 42.3789
4.4855 -11.2193 -6.03525
-15.6631 4.81191 24.8089
3.99135 -8.1408 -2.43621
4.49436 0.198231 -2.73163
11.4506 1.07549 7.85386
6.53708 -11.2194 3.73594
-11.0751 8.74202 -8.47826
-8.2023 4.81738 -3.98664
7.6668 1.26137 1.05248
-12.5573 -1.18907 -0.0895724
-5.71963 -14.7845 15.2395
18.9945 -21.1106 -7.95608
12.4785 16.2563 -5.34041
-15.3494 -3.55993 0.473457
-2.44649 -5.40264 -21.7047
-1.5991 8.53529 -7.31855
4.51758 -4.78161 9.86075
6.14494 7.44477 7.68939
7.68012 -1.57804 -12.3917
2.63442 -6.74548 23.1037
12.3297 -13.7011 -17.8522
-11.2269 -12.9468 1.59887
16.0223 -13.5802 -9.79987
3.13004 -10.7069 -5.41107
5.68226 4.72191 3.60461
9.56272 -8.32027 5.62104
-3.46584 -8.37176 -8.40124
6.39497 -10.8428 9.39944
-5.16797 -7.54043 3.17527
-5.48837 1.40979 -6.62723
10.9317 -3.37388 -6.37161
14.8101 2.27406 -8.03563
-13.274 -9.34861 -3.92195
-13.2862 1.09989 4.90793
-13.1701 -6.36277 -4.72074
1.54719 5.7478 3.5065
6.32384 -11.0382 12.0543
-0.162281 -11.1824 -10.2664
-7.80401 -12.1235 -12.0693
7.31025 6.59252 7.70842
-5.95578 -0.543711 5.01976
-14.3525 -5.30724 21.9149
2.30443 -11.7376 4.59401
7.90573 7.22224 25.8804
0.486007 -17.2508 -2.37714
17.1592 15.7064 7.79479
-5.39677 -3.01706 4.14587
-11.5253 -0.959973 11.2825
4.44708 -4.19099 -3.49854
4.81431 16.2312 -14.3184
14.3359 -10.4796 12.2867
21.1112 9.41401 -4.55786
9.25398 -3.35736 1.49268
14.3921 -4.54417 19.3877
31.5787 -6.05094 -6.87335
9.14004 -20.7141 0.912422
2.6102 2.96989 5.739
-8.65555 -3.14353 5.44621
-8.38484 -17.466 -4.691
3.66378 -16.5189 13.1572
-10.2568 -3.43407 -14.5576
6.59193 -0.166041 7.60502
-3.12957 -3.82559 -16.334
17.0648 9.13702 5.6927
-11.6369 11.7954 11.46
1.412 1.25304 -17.1216
13.8186 4.36051 -7.73443
6.35812 -16.3631 -19.801
-16.2009 10.7283 5.1749
-2.06095 2.99977 2.52948
30.0387 8.89349 -19.9737
-3.52337 8.45858 21.034
6.6074 3.07713 -12.0986
0.313684 9.87119 15.7142
11.3905 -17.0515 -5.84276
-13.2053 4.45715 20.859
-0.154675 0.390306 -1.32025
16.4014 10.9764 14.4823
5.43035 -11.4407 17.2012
1.57456 -2.56863 -26.0895
5.28541 8.13007 11.6797
8.69749 1.91754 4.86423
3.96891 -10.1605 23.2165
-7.47597 8.86031 14.2044
8.41805 2.35624 1.07799
-19.9368 -2.75872 -1.78912
-8.60422 8.01447 -9.52042
1.77566 10.6676 -3.96132
-4.38857 -2.33007 -12.7365
0.0755291 2.84071 -0.956453
-5.68009 6.07157 1.72779
-21.8894 12.3965 -10.5587
5.36362 -6.33098 -25.0302
-15.5897 7.83036 10.8218
12.9388 -6.87087 14.9256
2.06108 -14.872 0.261437
0.722877 -2.18096 -1.78139
7.3836 13.045 2.90222
2.65397 -5.79231 9.15394
-10.7729 -0.390382 8.46363
4.7426 12.7282 -0.108322
-16.2203 -12.5841 -13.9007
-14.524 12.9587 -23.5557
13.4399 -19.2485 -12.5518
5.09915 15.5293 11.199
6.59651 -11.639 -3.75109
-6.92664 -16.303 -1.48036
6.38423 2.56329 14.1486
4.33506 -11.021 -19.8634
-6.44437 7.05897 2.12039
-10.4172 -6.18819 -9.91152
-15.6183 13.294 -2.25682
-1.05223 1.03666 10.7102
-13.7425 8.76805 11.114
7.96166 -14.0039 -16.7447
-5.10476 -0.181219 -0.110549
9.78007 -17.9581 -4.46247
-6.23565 -16.7178 -15.6302
0.919676 -15.5275 14.457
-5.37096 0.475992 22.687
1.53008 8.9789 14.8035
11.0166 -9.95148 4.10462
-15.5357 0.513706 -7.17021
10.4282 4.23897 13.7387
11.7181 8.26787 -5.25024
13.4354 8.33549 -1.36887
-6.43695 -6.91861 -8.54084
1.21299 13.6789 -4.95068
-16.0854 2.50191 -3.36472
2.01558 10.0194 13.1374
0.228245 6.34701 6.92223
0.995075 0.470648 2.21694
-15.7599 -6.42929 4.22848
-2.46771 -3.04795 12.0233
-4.89053 -8.50443 10.2725
7.7106 -8.55327 1.41919
-11.2109 6.59323 19.2753
7.74327 -3.37798 -13.4774
0.545719 -3.08702 0.973245
9.48758 6.58332 -6.09849
-11.7374 -19.1649 -8.34535
-23.4421 -0.29974 0.295659
-5.26249 6.59828 -1.10706
20.9525 -2.61195 22.3412
-4.52937 -8.45145 -20.1901
18.8296 4.43499 -0.65252
-11.8384 3.76642 5.10965
2.51096 13.1858 18.5205
5.87969 -10.7186 -2.34077
-7.77851 -7.50263 -2.32495
-7.76591 -9.34588 -8.32002
-10.0372 -9.00234 -7.44344
2.4656 10.4475 -8.74264
-15.3314 -18.8678 -5.91488
-7.85815 8.69194 -3.02264
-20.9441 -0.663337 -4.20499
-3.31741 8.91816 13.9691
-3.48803 -9.73084 6.69847
-0.240767 17.4086 1.35873
-3.39186 9.04565 -13.932
-4.28218 -0.344868 6.11751
-7.28177 14.9709 -7.79771
-3.57099 7.68592 1.71169
8.38571 -3.9879 0.0607789
-2.44327 8.11525 -1.44761
-17.4007 26.0073 10.7803
9.33923 11.9002 -12.8882
-6.77591 2.9547 -8.50074
15.5026 16.0883 -2.14252
-16.298 13.0306 -4.74994
-3.27529 -4.0904 23.6974
-2.32801 -4.74436 1.21747
-3.69406 -4.31806 1.78571
9.30746 -3.27674 -36.0897
-15.5363 -14.884 -1.4467
-4.74256 4.91651 -26.9327
9.18165 10.8608 22.354
4.32843 24.4946 1.45708
3.90414 -27.1113 -13.2545
9.44019 -9.22968 2.40592
9.7197 8.80082 -27.3504
-11.187 7.36636 1.21712
-14.4224 32.225 -2.27979
4.55435 1.43738 12.672
8.55204 -13.8587 3.61331
3.23869 27.3874 19.1102
11.6179 -4.5507 7.72534
6.82897 -13.7974 -13.2179
5.923 -1.56439 -8.63905
-2.02283 -16.6439 -10.3261
-3.08744 -9.51294 -10.0225
11.8094 10.0797 3.51146
-12.3118 19.875 8.96753
5.1592 11.761 6.17527
-4.5496 -15.5233 -6.41323
-4.87644 2.83502 -0.357194
6.12288 6.5395 -5.46231
-10.4039 0.788069 14.4198
13.7621 15.9878 -13.8938
6.80869 -6.55693 10.994
-10.5649 4.44669 12.2854
-0.687086 -8.21715 -23.9545
-5.08304 -5.10641 4.57009
-4.65049 -1.00069 -25.3217
-2.80825 11.8993 4.16142
7.02209 -0.979629 2.31828
-5.14361 -16.5055 -1.9758
13.3499 10.0247 13.9124
5.89701 1.4405 -2.54777
-3.34724 0.913841 -0.36571
11.4946 -16.5802 -2.89923
-0.76754 -20.191 -3.06097
-3.62826 -14.5862 -9.74707
9.98735 28.5363 -15.1495
-3.20359 -2.55862 6.7367
4.01924 9.68286 18.7851
-6.74491 -7.46855 7.16108
-5.40104 11.2405 16.8902
2.47311 -16.7802 -2.34094
-2.61441 -1.27836 0.558568
4.18694 3.05942 -2.86445
13.307 14.2265 1.8143
18.7212 -6.75366 4.72654
-10.526 6.95265 -8.72498
-5.64108 -7.82682 -5.7698
18.1977 12.8743 -6.41135
3.21656 -9.41554 12.9868
7.90224 12.969 5.43519
22.618 8.57428 -4.58165
-10.101 0.123778 2.60326
-11.2193 -17.5133 11.5273
-0.0844937 2.30127 25.818
3.37011 4.1036 8.41746
-1.18716 12.8366 3.80603
-15.4689 -2.93757 -17.2443
3.12029 -2.36595 -1.02332
1.81194 6.28693 -0.424642
-9.38008 1.27219 -4.65026
3.19535 7.54304 -4.74909
-6.1121 2.24984 -2.88566
-0.592593 -5.13834 1.15605
7.65128 -3.65917 3.18488
-0.531435 -7.36829 -5.45072
10.9905 7.86622 -7.29675
-8.72588 -6.21385 -1.38676
-1.54263 -0.0148136 6.74397
-11.3448 -22.0619 7.76544
-6.71657 0.796347 26.8094
-7.46327 -0.96438 3.13764
4.99748 -13.9529 6.35048
-24.3924 5.22286 5.92397
-9.86116 -7.9185 -0.488593
-0.793034 0.542375 -0.979545
0.567313 5.90403 4.10802
3.03821 6.70323 7.39191
3.95356 -6.06369 -27.572
-2.49511 -15.6234 -9.69709
16.8116 4.91159 13.6339
-3.00567 4.12231 -10.1743
-5.03422 10.0819 9.51823
6.50461 -3.62905 -1.58669
-4.51323 3.34505 -1.77527
1.98539 37.4114 -14.0918
4.68821 14.6598 0.92459
3.24139 -6.19735 -12.3279
-4.32535 -20.7534 -4.66709
27.9259 3.01502 -7.0957
16.7697 -12.5733 20.1214
4.14502 6.29208 2.01702
-18.1111 10.1147 6.76717
-0.770875 5.77173 2.98061
12.0261 0.173235 -4.29257
-12.9222 12.1295 -14.6429
2.47837 -1.79806 4.02538
11.3783 -17.7344 -5.13014
11.9225 -1.13925 21.9989
-11.9169 3.53466 1.2244
-10.4728 7.15044 3.3678
10.4318 0.925921 20.1962
-7.72471 -13.5558 19.296
-1.85085 7.13822 2.88918
-2.74384 -8.60718 -13.0004
-9.81425 5.24471 18.0706
-3.20823 2.954 10.1665
32.7399 13.8109 2.57875
-19.2988 3.28131 -5.69969
10.1979 -4.22588 9.00862
3.74632 -12.4137 -13.6166
-0.351987 17.3945 12.822
-0.910879 6.82909 8.69487
1.81082 -14.0848 12.2219
-4.52322 3.06121 -13.0524
0.649678 9.88204 -13.4611
-10.6447 -15.3652 -5.99161
-6.74277 4.66665 24.6492
18.0008 -3.03764 -1.38865
-3.81275 -12.55 11.8018
1.6514 1.76471 -2.64446
-2.26408 6.06574 -9.17465
-1.4033 14.3195 4.48277
24.5334 2.00391 10.6761
9.64356 -1.50173 10.5448
12.9651 8.32805 21.5849
11.7359 17.6655 -2.72189
-2.93402 14.7383 -4.80621
2.20374 -6.84301 3.52046
10.1059 -15.5994 3.99656
5.40564 -4.79095 -4.38599
10.2546 0.849194 0.172515
-2.49718 1.96239 -7.29739
26.5195 -10.1233 0.628746
20.2404 16.7435 7.08302
-2.82627 -1.60247 -11.4258
-13.3831 -9.46682 3.79674
-6.92639 1.62603 -6.37406
-5.95919 -4.855 -26.2889
3.65876 11.5644 -8.11699
1.83504 13.047 -14.9541
-8.6983 -3.88026 -15.7568
0.359014 -12.056 15.9913
-6.32486 8.7787 -9.7175
-10.7741 -3.59337 16.45
18.7155 -13.5831 -7.72646
9.83726 15.9346 -1.82112
-16.5434 -4.31451 -6.60051
2.47987 -6.66243 12.7261
-19.7663 1.60377 30.9243
-12.0215 -10.5658 -7.23403
14.5519 4.67629 3.21003
7.37102 -16.2719 0.394564
-12.7142 10.8694 10.9779
1.75685 5.95724 4.21369
2.7377 -9.38372 -19.0313
21.2965 -0.130309 -25.8976
-14.011 -3.45329 18.4413
-4.74169 -8.81981 3.43358
8.24071 -17.0756 21.1617
3.98432 2.64902 -11.3093
-0.131681 9.83447 15.9872
-12.0434 1.85162 5.64053
-20.2579 -3.97256 -9.73778
10.2379 17.2299 -5.23326
5.56756 -3.52174 -12.4028
-2.80939 6.09109 -13.3771
-24.186 -12.4849 -1.16638
-3.19429 22.839 -15.0059
-7.34833 2.46123 -6.23627
1.22212 21.2231 12.9066
-2.46055 -12.3845 13.1621
-7.40013 3.53149 5.04824
2.22047 13.9279 8.35367
-8.87046 5.92164 6.40515
-3.0154 8.19334 8.82019
-10.8254 18.2252 -3.65955
-1.77745 2.61298 -6.1071
-13.3408 13.1794 8.59445
-0.809902 -17.1923 -1.04526
7.02125 12.6437 21.5132
2.15266 -11.6961 -7.18772
-7.35618 -10.3643 7.90121
19.0329 17.208 12.5945
2.90965 -1.18668 9.72933
-9.2341 18.6277 -7.67805
8.56128 8.06128 -11.8392
6.18344 8.00137 8.24585
-3.92045 16.4411 -13.7905
13.9871 2.53522 13.8488
-7.34904 3.17582 16.7896
7.16861 -21.1501 3.62537
6.94327 17.067 13.9621
-3.05991 -11.3497 -2.56839
17.2296 2.62783 0.193423
11.7178 24.158 -1.55807
20.8963 -0.313627 -7.48254
7.71347 10.1057 5.28444
-3.09593 -12.7329 -0.0589824
5.52415 -9.77704 16.5164
11.8769 22.7923 -17.4653
-16.6129 1.17803 -9.70392
9.45387 -0.573618 -21.9458
-20.049 -9.12747 23.8404
-21.2433 8.8036 -4.27969
-3.19053 6.09336 -1.60062
17.5805 13.6185 3.01256
-4.67373 1.81968 -4.35214
-13.3953 1.24365 2.47809
3.15079 -1.93615 -18.0343
4.24299 -3.46426 5.423
3.44275 0.836868 -10.5683
4.05511 -11.7724 -0.647117
-0.838424 10.6598 16.7786
-0.0333528 -24.9767 -8.79101
-2.3915 -1.82805 1.3854
4.42125 12.7348 6.48879
6.63971 -21.0491 9.73479
-6.09101 -26.6009 -4.99891
-18.6539 10.3338 1.552
7.05737 -10.3953 -23.398
-1.14334 2.38879 -5.59913
3.5412 16.9038 0.910503
4.49587 5.71141 -1.01545
8.99929 -8.96293 -0.316958
-28.6191 0.749983 -4.67263
2.07119 10.8001 -12.128
4.13863 -12.878 6.05903
-5.31424 -3.12665 -9.67736
3.30869 -17.0027 4.65875
11.6129 3.52204 -16.2045
-5.77156 7.06148 6.26318
1.84916 -5.63419 2.89674
21.8233 -1.46213 -16.2979
-17.2196 -2.04309 -8.08471
3.3973 -23.5317 2.61248
19.3968 3.6982 3.33822
-15.8352 0.283548 -15.5704
1.83374 -15.5243 -12.6956
-0.983289 0.00136307 -5.97196
-2.94941 -18.2209 3.67291
14.4323 -5.58926 3.71345
-2.25625 21.2221 -11.3018
10.6164 -6.40048 16.0395
-10.0042 -19.5357 -2.26313
1.11532 8.30394 -2.95758
-2.98473 4.05995 -3.62216
11.1753 11.4263 -17.4577
-5.39069 -4.85511 0.910757
0.932817 -2.65044 3.6022
6.18866 3.53098 -9.25186
1.26366 10.6129 5.33324
5.38712 7.44481 13.2262
-7.30752 -14.9372 -6.50007
4.69514 -6.87479 3.57214
5.4195 -0.534171 7.77618
-7.61256 1.26148 -3.25176
-3.52666 4.51103 15.3447
-4.3056 -17.8846 2.38413
12.7316 19.4116 -14.7424
10.3178 -8.004 7.85569
-12.2233 8.94271 -18.0182
20.825 -6.89691 -7.88906
-3.84584 2.55353 9.29758
-8.90372 -5.21781 -12.0392
-7.54866 -6.0614 -5.57151
-7.03987 -3.48358 -13.2171
10.3754 -17.767 10.2775
-0.147551 -9.62349 12.9612
-3.22826 1.3321 13.513
3.93148 -7.32526 -7.98798
3.12441 -17.0022 -11.0152
-7.69282 3.67011 -4.18624
7.95366 -12.8684 -10.241
0.352794 32.0357 6.44262
-0.619627 16.833 5.76424
10.1882 -16.2699 -28.1527
-6.06053 18.7633 20.0884
-1.31563 2.70623 8.2941
10.8487 -4.30067 8.68551
-3.52649 6.47011 -1.14271
2.71135 -9.39535 8.08971
5.79108 13.3075 11.2431
3.13193 13.5317 -9.55827
7.01653 -0.891894 4.80727
18.4818 -2.42057 -8.31162
-1.73576 -12.4774 3.90994
14.5951 -5.03234 25.7831
-11.8115 7.82391 4.89429
9.69907 13.5562 -2.19062
-21.6478 -5.01407 -12.9884
-4.99031 -4.03178 3.60058
-14.5201 -8.23122 -9.88432
-5.28969 1.09924 3.55665
-17.3294 4.26321 0.866989
-2.85986 3.80678 35.1754
-3.22523 -22.251 -3.87195
22.957 11.4264 -8.55132
-5.22187 3.60081 15.6886
-1.70242 -24.5657 -1.38443
-17.4858 24.5213 -10.4406
11.1849 -6.47333 -25.0937
5.8713 -11.3238 14.3615
-13.6227 -3.66144 3.33204
-10.5202 11.6085 3.01038
-5.174 10.1002 14.1533
9.09297 -2.52617 29.6981
4.01072 10.568 19.3229
-5.17213 11.7133 8.74553
-20.8293 5.04932 -7.52122
1.84027 11.187 8.83196
-6.12697 9.33847 8.9937
5.75236 -3.34393 -1.23276
15.0817 -7.26689 11.3389
10.4228 -13.5678 -3.67796
-3.24064 3.42974 11.1929
-11.6992 -5.40712 -6.89093
9.32637 -17.7296 -2.21787
7.16948 -1.44024 16.3461
5.66942 -0.997858 11.4235
-0.255077 -8.52895 -1.29194
-8.32041 -20.3669 -2.07909
-3.73053 9.74729 8.26232
8.17126 -26.5495 -12.1
-20.127 11.9345 -8.90907
-2.99633 -22.8181 -6.42954
-18.1651 -1.94049 -8.5282
-2.88569 -10.8819 -13.4767
13.3658 9.19952 3.1864
26.4235 15.4563 22.0549
21.3185 -19.5806 -2.03605
-14.3204 -15.2151 5.29604
10.8055 -8.316 4.03471
19.9592 -5.79547 5.01069
3.09692 -12.7394 11.2665
-8.31714 18.2232 -0.345318
21.9461 8.60833 -23.7776
3.20799 -1.14682 -9.25929
-0.381011 4.31701 4.74066
19.2241 2.93384 -8.13665
-6.75463 8.60596 2.60298
-2.82295 2.88777 10.4728
0.129425 4.29688 -15.1228
22.0426 -11.9379 5.61962
3.16235 5.28529 7.76692
3.79432 0.968188 -10.5084
18.8035 -17.3208 24.0586
7.25416 3.77673 5.07275
-16.5907 -10.905 -10.6757
-7.09734 4.31397 2.74847
-0.209711 5.31224 -1.66626
-0.57792 -2.15857 -0.812163
0.0834018 4.38718 -2.6561
0.0154182 -6.9726 16.8697
-9.40229 -21.7582 -4.8552
-6.82429 7.21916 9.45951
-5.66474 -18.3532 -14.5807
-0.786095 1.9321 15.3142
-0.724926 3.00794 3.29231
1.22726 -19.0929 -2.34772
-10.5195 -8.50864 19.8405
-0.475349 13.9355 -3.85923
16.2351 -6.43461 -15.3496
6.85112 6.47009 -9.26141
-15.6341 -9.34824 1.24487
-4.24736 25.5188 4.73185
-6.71792 -8.04688 -16.9191
17.7054 2.71189 -10.9894
-14.1493 4.46308 3.67923
3.71808 11.4423 -2.7876
14.5538 6.21404 -25.2176
-2.45292 -1.14964 -15.731
-15.8691 5.32829 -1.09367
11.1195 -10.1669 3.48894
-5.50276 6.86414 -17.5458
18.5158 11.6056 -13.683
-18.7628 9.90865 -3.23532
-21.3359 -5.96675 3.92618
3.52904 -7.25083 -21.4493
-22.0033 -2.78708 1.34734
-14.2642 -11.9903 10.8199
4.46775 -3.34063 11.3575
12.7093 10.6586 8.661
-4.71846 7.21024 -7.62475
1.29439 -13.2512 7.37621
-2.33192 -15.9663 10.9095
-19.0469 -13.924 25.9425
-2.00522 -3.83384 -3.48602
-10.8132 -14.3309 -15.2499
2.98449 -10.912 2.87732
-1.6521 12.6819 2.65108
-8.87201 -7.45043 14.2698
-3.51528 -19.0241 -7.66994
4.85847 23.2066 -7.5678
-2.77835 -30.1267 1.60199
-5.64855 0.159492 -13.0797
-4.86692 2.88592 8.91606
-12.1787 -17.0299 -10.7077
-3.89541 13.8834 2.00984
0.294616 4.94789 13.0285
-5.52885 5.11767 29.963
15.0533 -0.346839 4.15763
-2.2252 -0.0925096 -2.26698
16.244 9.11778 -8.41405
-1.03528 -8.50691 6.72963
1.82223 -8.10566 -12.0645
-10.6816 -10.2448 0.95243
11.1631 0.439148 4.60005
1.69183 3.19648 -3.11764
0.698493 -12.0664 -1.93052
-14.3398 -2.64606 15.3517
-27.1313 8.65342 13.4218
11.2673 6.55406 7.10582
-4.2569 1.88653 -0.205883
-4.16208 3.49067 -9.30869
1.23556 -10.0908 15.6457
-4.71494 -3.14027 10.7442
11.8935 5.07735 -3.68131
-0.252619 -8.82088 11.2329
12.2401 -0.0501464 2.95266
-21.2677 -4.5827 -18.6482
-6.2173 2.2538 -0.637106
0.810876 2.25632 -7.63835
5.35318 0.738483 0.106335
-18.8462 1.37567 10.0982
7.33972 26.1344 -7.47407
11.7552 10.0076 -3.0585
-1.22328 -9.22666 -10.84
-6.91942 1.37636 -1.31138
5.4058 -16.0793 23.6401
-7.16947 3.65962 -3.96657
4.34126 4.48461 14.0977
-8.79875 14.6739 1.99465
2.29214 15.5941 10.6011
5.4175 -13.2467 3.98335
28.4044 -15.9421 8.50997
-4.92246 -1.60644 -5.1198
20.8931 2.15434 1.61594
-4.35496 -25.8566 -6.27948
12.1283 5.84808 -0.804058
-9.73096 -25.6565 -9.70155
12.8681 15.7361 12.2712
-1.8055 -3.19003 -2.22676
6.83966 6.74126 15.7042
-7.72573 5.40065 5.87476
-8.63256 -0.802002 2.59676
5.55589 7.10607 -11.3374
-7.63101 -8.92518 -5.41732
-14.426 11.2648 6.41311
-26.954 -14.9482 0.995048
-5.26014 -1.25492 -10.0803
-11.4856 12.6845 3.38264
-17.2867 1.55287 -14.7399
-19.9043 -2.75759 2.52423
-6.20819 -17.1927 -2.02537
8.44501 -23.7021 -8.39264
0.871882 -17.0429 -11.6074
4.52513 20.7694 3.68202
-2.14808 -0.286015 23.6994
-3.37764 -4.56385 5.86875
11.069 -0.270123 1.14692
-10.0466 -6.97031 -25.7174
-9.20955 -32.8098 -9.44276
18.227 -13.7853 17.9788
4.59801 3.183 -5.90272
6.33805 -6.86438 -0.0759313
-6.34197 14.3795 -2.59769
-7.60061 7.97656 -12.467
18.9151 -6.25404 19.3013
4.25274 -1.78373 3.35747
-5.90125 4.42418 -0.570795
-20.5412 -6.46585 10.6556
18.4193 -12.6373 8.75179
-0.81864 4.7584 11.836
2.27874 -3.49896 -14.1509
10.2091 9.40244 -7.92426
4.80075 4.57664 9.34636
-8.93919 -3.92157 -2.00501
-13.1769 -7.78025 -4.0336
9.24393 9.93849 6.78155
-10.9514 -8.90967 13.7102
-12.4897 12.8812 10.8254
-9.42436 0.710796 -4.55298
-15.5495 17.2127 -0.999249
4.11915 -8.353 -11.3438
0.38587 3.0973 4.10044
-1.89182 5.80372 3.22538
-4.59926 -6.91046 -11.1786
-11.7417 -1.86215 3.94235
-0.532989 -4.56166 14.0317
-4.48585 -1.3344 18.3459
23.469 3.25337 5.07967
18.1439 7.67997 -27.4596
9.88167 -9.00321 15.9493
-7.63154 1.22509 -0.896945
-0.271126 18.3813 15.1624
-11.0861 12.7276 6.84236
-4.57273 8.06901 7.958
3.79242 3.27986 15.9091
5.21026 -14.6351 -18.2358
-2.0116 5.44563 -1.23737
-8.20921 -4.555 8.24816
17.6986 -4.19687 1.82077
-13.3684 13.7237 14.3968
10.2419 -26.1593 -4.94063
-1.87322 -1.63577 5.20744
0.987063 0.1032 -8.08712
9.43966 4.45737 -15.2499
6.10322 -2.30706 6.81288
13.1268 4.49962 -1.50375
-26.8737 -0.855744 -2.60492
-6.71606 -11.3475 0.402501
3.2789 4.48978 -4.47675
-1.0644 -12.2126 20.0825
-8.0562 10.3619 -3.49268
6.89472 6.72196 9.61461
8.34679 -3.03658 15.1188
-0.546137 -11.353 9.28653
5.54732 10.5661 -14.8432
-2.02006 -17.7339 -10.5555
-9.96416 2.96625 -21.6008
0.310847 1.17587 20.3983
-7.75376 10.0332 -9.59932
-8.01563 8.67941 -11.1541
-9.08749 -7.54836 0.664727
-6.33786 -13.4163 -17.5386
8.58473 -8.71965 6.19727
8.10279 -7.9191 -10.7842
3.47742 2.51313 -8.65997
1.74466 12.5495 -12.2835
-18.8592 20.2728 0.120634
12.7286 -16.0817 -2.04717
-3.7974 -2.98075 9.60641
11.0317 18.629 -0.807107
2.07844 -26.7642 7.34428
-1.70347 -13.8227 2.14579
12.7021 0.488129 21.3149
5.45598 -12.4433 -7.356
14.2564 12.9168 3.91893
-3.61696 -0.170721 9.97121
-13.6879 -3.28544 -0.894637
12.8145 -2.16371 -4.86338
1.56855 13.0902 6.08367
-6.22084 20.5983 -14.4889
-24.7727 -1.67943 0.705394
-10.2874 22.352 -5.11681
6.39087 -12.3894 20.8982
6.48914 -10.4022 9.02877
8.962 -4.13528 -3.19847
-2.40225 -5.1003 7.09088
-20.7852 9.14637 20.1461
-5.62463 4.09187 -18.8246
6.75856 -18.7584 1.58873
-14.2733 12.6321 -32.9387
-2.18295 -16.9444 9.09772
-8.03539 -12.8804 -7.32899
-9.72915 0.267434 -12.2612
-9.16537 -6.48845 -7.18299
-2.88016 17.3639 -12.6511
-23.8497 -10.6128 -2.15805
6.14042 -9.88999 -2.38741
9.05198 18.2854 3.55656
-1.14057 2.66828 -11.679
-19.0044 -10.9703 3.18083
-6.28903 -0.00454711 3.65991
22.8829 -8.50148 -0.3512
-3.53016 -12.5324 0.341917
5.6711 -6.39293 18.991
8.36267 -2.42511 5.82614
0.645668 -2.18942 1.60103
16.5035 -18.2022 -12.0025
5.48496 3.65429 -2.50479
0.535703 1.29971 20.4144
2.26243 3.80109 -4.35525
5.28152 9.40648 6.82277
11.0809 14.6275 2.96132
3.39901 -15.4204 -4.59843
3.80652 -10.1683 8.96927
18.1696 6.69744 3.30603
3.27532 -1.54308 14.3353
3.13898 2.07462 -3.0919
4.80208 -6.90573 -18.4096
0.44526 1.39588 13.2458
0.102622 19.5681 -12.3231
-18.6295 11.2091 1.52916
-14.5313 -15.0975 -4.90982
6.05615 -16.1793 -6.63163
1.9126 -8.37179 7.12258
12.0132 9.51552 -8.36856
-15.9698 -6.67691 0.489713
-15.4077 -21.7361 -9.37034
5.1272 -11.0591 0.338654
-9.30832 -4.79153 -4.59864
1.09077 -6.76101 -1.43125
2.88598 -7.87533 8.34161
-5.75398 -5.13817 -13.8956
8.31171 11.8071 -12.4377
15.5209 -8.47557 11.3301
-3.65451 5.29089 -15.9387
8.27641 20.8193 16.0278
7.20244 4.97477 -8.49849
5.07934 -14.6971 -8.3807
-4.09041 4.48495 5.2136
5.59282 15.9002 -7.67359
-10.0517 5.30595 5.30326
16.455 10.384 0.536864
-4.58299 7.28426 9.47503
15.8538 -17.7215 -4.47606
5.20614 2.69877 0.2158
10.9919 8.67324 -2.01057
3.11685 19.8477 13.7922
7.02487 1.55126 8.78941
9.78009 -2.41391 10.9311
9.70197 3.2132 -8.42235
-23.881 -0.328987 -3.22233
4.13467 -19.9571 6.19829
3.24972 4.38333 -24.0515
-2.95955 4.95852 -2.52536
-0.140122 -18.3708 -16.4094
-11.3587 -10.4885 2.26662
5.85576 -5.71661 -4.6984
8.1538 -5.67733 -10.2784
10.0924 -16.9934 21.654
-12.7215 5.74792 0.122043
10.9526 -3.33108 0.46047
11.1091 19.8536 -11.4439
-6.45198 23.6585 35.9967
-1.24503 12.5781 -10.9455
-24.7134 -4.64554 -2.45916
1.33829 -5.02834 -15.9331
16.7497 0.7275 -12.0476
12.5453 -7.88598 -10.1657
-4.64958 -8.94084 14.406
5.06068 8.32205 11.4851
5.85267 -1.89051 6.5054
1.34607 -10.9779 0.575178
-5.16695 -10.5011 12.503
10.3906 -17.4726 6.14014
19.0334 4.5876 -4.16712
-13.6221 -2.96203 -0.847233
-23.4972 12.5011 -7.66193
0.733953 3.7799 27.2467
9.24016 -0.429015 6.20531
-11.1534 10.4192 9.77455
8.29054 17.6642 -17.1366
-18.5086 -3.32876 -26.9791
-9.7506 17.9313 10.264
12.9426 -0.877949 1.17453
-10.3209 -6.58552 3.60339
0.204519 8.01076 -16.3476
14.3085 -9.18235 0.255851
-12.7431 -1.33855 2.89142
7.741 -11.646 -5.2814
-4.03021 4.5489 7.45395
-0.0117675 17.0172 9.51118
-9.62739 -17.3554 -0.874378
-2.25492 7.29187 -7.58701
-14.6967 6.38022 22.3943
16.7013 18.8001 -13.0664
-6.4581 2.64564 18.026
0.139082 -4.05649 1.40971
19.2419 10.5012 2.50376
15.2027 -20.2871 -10.9052
2.78633 -23.6556 9.30969
-11.1077 11.139 9.99687
-0.557589 -16.0484 -3.90144
22.141 6.74971 -10.5453
-2.32025 -0.692634 -1.52095
-5.03719 2.27136 -10.2219
-7.65212 -11.9926 -11.2598
-5.63545 6.5669 -13.5538
4.36313 8.85532 -5.46974
-5.45366 14.2169 2.9753
3.74905 -3.65838 -1.01529
9.26937 -7.20579 -10.1889
9.2381 -11.0727 -5.11188
7.89482 -6.46433 -7.64557
21.5127 1.3848 2.98678
-5.30683 -0.437963 1.71268
21.7755 1.18865 5.5831
16.2851 -18.6083 -3.65253
-12.4482 12.9731 -8.7202
22.3464 -6.53342 -0.155232
-12.6473 2.805 3.36895
1.55866 0.757609 17.8276
10.8682 20.2466 12.9437
-4.32074 13.1053 -1.62575
-4.63273 17.319 1.22363
-2.27031 3.74474 6.81822
-2.66998 16.5661 4.7888
-18.1819 -17.8929 -6.66392
0.25787 -3.92288 4.23017
1.48312 -4.04251 0.00234934
16.2273 -15.6173 9.88988
-1.77707 -1.02691 12.2062
4.77677 9.98281 9.05221
5.77063 -19.0377 -15.6199
-19.226 -7.31834 -7.06152
0.0403776 2.02943 -17.3367
6.67812 9.11396 8.48131
6.53969 -8.3754 9.97792
3.69925 9.67954 -11.6424
-6.80632 -18.027 -16.9984
-8.72822 2.00217 0.452702
6.98112 10.4358 14.1829
6.23289 3.86225 -2.62498
-1.79454 18.8039 -23.0113
14.9787 5.66728 17.0946
14.4575 6.00559 -0.303119
12.8453 4.57928 4.21266
-0.902507 2.73811 12.4073
-18.7648 14.5301 -4.02857
-3.00958 0.884737 -7.99311
4.82796 -5.1913 2.73181
8.73712 18.5459 10.2837
3.85062 5.34314 14.1245
-14.5243 -15.9274 8.40507
10.4155 6.62675 18.825
-4.199 -7.70809 7.16864
7.78426 0.282277 -1.13897
1.13088 -10.6618 -17.5476
-3.66891 2.12475 18.886
13.7658 -0.532241 19.4151
6.46451 -15.4636 14.5654
-7.75341 4.03379 19.7696
4.6296 -8.78203 -1.65477
-13.574 11.0033 -11.0516
-15.8841 0.998457 -13.1228
3.1083 15.4442 -3.14412
2.7195 -3.66926 16.35
8.4758 -7.40146 1.42507
1.76955 -0.930508 6.70987
-4.44407 5.51479 9.53932
-1.98955 -9.53118 -1.44136
17.1066 -3.85253 1.73824
5.00067 -21.4624 6.64232
1.2606 -15.3709 8.75452
-7.55107 -3.1151 -6.41881
-0.128214 -15.8909 4.671
3.01893 -15.5459 2.71021
-17.6978 1.81398 -10.0953
0.866303 9.02485 7.19184
-17.4858 -0.447078 18.6272
3.15786 -2.30055 -7.42584
14.322 -6.58019 5.26076
10.6816 -17.5239 20.1709
7.95754 9.57427 -9.50442
-0.794616 14.2755 -8.36771
4.75704 -2.9279 10.6909
-4.57661 4.42959 14.0309
-9.99227 -2.79543 15.5976
6.30633 3.58875 -17.6394
-19.0307 -9.15867 -5.11099
2.26932 13.93 -20.0064
-7.80701 -11.3084 -36.5492
3.36005 -4.57199 -10.9376
1.24764 3.6974 -1.62293
8.78707 10.7051 -15.1346
0.0601706 -4.91895 -0.0251879
-16.2468 -14.5714 3.40803
-2.80707 -15.7382 -5.83942
-10.547 -18.5472 -1.46706
-5.46895 5.13065 -12.0301
-10.9222 21.6155 0.0218404
-3.61991 -17.4208 -6.88186
13.3659 -7.90143 6.9577
2.45846 7.03388 -8.13592
7.97923 1.32664 2.49796
-5.22989 12.744 -4.96012
4.24987 -12.0794 10.2271
9.12935 -5.11522 -5.84737
-1.63473 -3.31474 -32.044
-0.811994 -12.3948 12.3695
-7.16262 8.41869 -1.28932
-6.0342 2.6326 -0.177484
-5.15366 -3.0733 2.39556
0.752546 -2.16454 10.6884
-1.38794 2.02168 12.5382
-2.57936 10.1173 -3.78472
-10.9414 9.46098 -4.33146
-4.94637 5.82872 9.41159
-7.07581 7.92498 -0.302226
-12.085 -9.69845 4.85622
-10.5343 -1.08632 9.44169
0.037007 -14.8964 14.0194
-1.49796 -14.2107 4.04933
-7.8304 11.9067 5.25867
-10.9173 3.47109 11.4093
-1.85047 -10.8357 -6.12635
6.71128 -22.9827 9.06068
-9.4801 8.65557 -20.3094
24.5483 1.07863 -14.9015
-12.8918 7.39317 11.7351
4.89831 13.4204 -8.03642
6.9315 8.26966 -13.7939
12.1346 -12.1526 1.96241
9.94472 14.1387 8.25881
-4.66891 -10.16 13.1834
-18.4452 3.56198 8.19089
13.2937 -7.70277 -12.9769
6.60645 -6.50095 1.33113
5.80987 4.79 -0.195277
2.91977 -17.1497 -7.80874
-22.1063 24.7463 6.96158
5.3641 6.97419 -6.32707
-7.87968 -10.6547 2.16375
2.11997 -20.2924 2.61369
5.35495 -26.9081 -14.2695
-1.69661 2.03822 -7.23206
-6.37121 9.63148 -6.63712
0.986009 9.69689 -3.75852
1.11164 13.3766 -23.1467
-0.19024 2.82087 -12.6106
-2.13305 -14.521 -15.7303
-13.1573 -6.09144 -8.50578
-14.2808 -5.79762 -22.6696
-11.3835 -1.97491 -2.8391
-8.39029 -2.92314 14.6441
-8.24134 -6.07263 22.3963
-9.6623 -12.5364 -5.0763
-22.5377 -18.4192 3.79417
-15.2531 -8.64177 -4.45321
14.4561 -13.8857 3.34644
7.17003 -22.3428 -12.1067
-7.40636 9.93795 17.28
3.13888 -5.94119 3.06119
-19.6969 -27.611 11.3025
2.67812 10.9013 9.03369
9.8381 -0.325591 -4.88901
-6.06942 12.8771 -5.32306
12.9637 -9.46089 -8.09731
8.74774 -15.5458 8.51843
0.903918 3.2212 7.43866
6.25109 -10.448 -14.1504
-4.0797 8.80291 -0.949036
23.7692 -9.77845 -0.0148586
15.9 -6.94947 -9.47052
-5.06434 -9.61668 -4.65948
-21.9234 -23.8811 -13.0838
12.8575 -1.89653 -4.59496
-11.4658 -2.45357 -3.89996
-1.04037 9.2814 21.1986
-0.742398 31.3763 4.6506
-12.2461 -3.86218 -9.49556
-1.13124 -5.79306 3.35403
6.63109 -12.0647 7.2834
-6.19038 1.10443 13.1171
8.8371 -15.7565 -2.85356
19.8608 3.49224 14.3811
-1.75538 5.75733 -6.36012
5.89672 -11.0322 6.08809
-20.3581 5.66791 -2.32364
11.4483 17.3917 -2.81841
-8.38096 11.5459 11.498
-6.60291 -9.91095 7.65685
-10.2195 -4.82327 -10.3987
21.1987 -8.75172 -1.78378
9.94811 10.7543 -5.10751
-18.9699 -10.328 13.4427
-6.52397 5.77459 -4.28529
3.1762 -2.36286 -11.2614
1.67022 -11.4649 -11.5627
-29.9533 14.7591 2.26269
-3.09586 2.12902 -3.74695
-14.8479 7.4723 -1.70793
2.13596 -18.1573 -9.0574
4.47526 8.47519 19.3735
-10.6608 10.7474 -2.08286
20.4803 10.798 -1.79038
-7.79973 9.76518 3.04581
-2.67931 18.6404 -14.1657
-2.42125 30.0707 -2.91007
3.33899 -4.63473 -7.96788
-6.18894 16.728 12.5591
-6.36562 -1.0508 -2.26561
4.25176 -2.17336 -13.9462
1.75529 -7.62235 14.8277
4.57159 21.4806 -8.08568
4.58889 -2.32163 -17.2012
4.47904 -1.74871 16.3045
-10.705 8.48176 -0.969356
4.40185 -9.02887 -7.3788
3.00165 -9.34023 -5.45512
-2.69254 3.20407 -3.28843
-4.64446 -5.27526 1.63244
-0.456363 21.2874 26.7456
8.12434 -3.57715 -11.1198
9.69975 9.80625 -1.892
25.1301 7.86347 10.4839
-7.96655 -3.16901 20.5671
8.39605 -1.41296 11.8666
4.15275 10.7547 -11.7306
22.0666 6.4414 13.2018
13.4728 4.67556 -4.42566
2.11016 -8.37701 5.3144
3.89146 2.54967 12.0308
9.46394 4.71633 -20.6287
-17.7382 -1.42981 -13.4113
-12.1884 5.63522 15.342
-4.47409 8.27617 -6.509
17.8612 3.44379 8.99321
-11.9416 -4.14548 4.20929
-8.80396 -1.71693 5.0003
-5.08715 -11.094 0.133397
4.5809 -16.1069 -0.77284
-9.88997 2.79338 2.51355
-12.3619 0.0101937 -5.10104
2.24734 7.30258 2.06382
1.70341 9.00333 -9.31231
-8.78979 -8.74324 4.35935
29.6982 -10.4295 -6.67174
-9.806 -11.5734 -6.37538
-3.51714 -11.2696 6.87815
10.2105 -4.59708 18.0411
-7.29421 4.32074 9.72478
0.812173 2.08008 3.37857
-4.86637 15.0763 15.7303
8.69902 -1.44876 5.66633
10.2554 -8.26245 5.36443
12.1925 -6.37644 -5.8617
1.68039 -9.10747 -10.7318
-2.83138 5.16082 -14.057
-8.8624 13.1184 -7.42328
-6.07089 -16.8901 7.58899
10.0545 0.523363 -5.97595
21.59 0.916776 7.63244
10.0363 -13.6485 3.29681
-5.89533 -15.3846 3.38023
3.33111 14.4123 1.13811
13.8647 -6.48842 12.1725
5.65221 6.87337 -2.05177
1.42014 14.6479 1.48217
-21.7837 23.7859 11.5541
-8.89836 6.98512 4.10059
15.5034 0.686127 4.03581
-25.4342 -13.7687 -3.359
-18.5312 -0.739637 0.91858
-0.0841353 -6.41551 -5.69285
-1.77259 -10.9052 -0.257586
0.76817 -7.51562 3.63782
-0.712585 4.51259 -1.85957
8.63791 -11.1897 8.3197
-5.52379 7.34142 -5.1725
-3.44095 11.1601 -5.29728
-2.46345 7.77481 -7.42516
2.15747 7.89526 -7.42892
-2.92968 -0.760926 3.06793
-1.30459 10.916 -0.138728
-5.57784 -4.32719 19.0107
-10.7502 -3.78226 -10.189
4.7838 -5.61601 0.138261
2.60747 -1.10785 12.5971
7.62003 6.86243 -3.09408
12.1499 -5.43856 -0.654891
9.90568 4.80267 -12.384
14.0381 1.98084 -6.58198
10.8328 -12.4613 1.9871
19.7835 -14.3965 -1.42898
1.18209 -11.5585 17.3235
-0.865347 9.23389 -9.02461
0.0454064 4.35132 -13.0013
-8.20072 13.279 -17.34
11.5793 3.77575 12.8525
-13.3388 6.99736 -11.5347
2.47764 -1.79749 -2.36544
7.33807 8.29059 13.2924
22.203 -7.84777 -3.99666
1.6226 11.0527 -9.86328
-1.69348 8.90942 -1.61597
-7.94056 -4.50165 0.620581
-4.2113 1.27895 -8.79591
21.187 -11.4073 0.151864
-22.2255 13.7712 -2.93656
1.99751 2.81235 4.84349
-4.48726 0.910674 -2.09851
18.5232 -1.52803 -7.86827
-7.5189 3.95345 -0.616403
-9.12884 10.1218 10.9194
11.5435 3.61833 -9.16411
-6.21579 1.81417 2.92024
7.58677 -4.95702 13.2032
3.4358 14.0528 -0.979453
-21.7717 1.62714 -4.32323
-9.44857 9.41368 11.3986
-2.44607 17.6246 -11.7508
1.04017 8.95366 13.0252
7.54542 -4.96183 2.30069
12.646 -5.89532 11.1565
1.51857 -21.5402 2.30281
0.748876 11.0481 16.1655
0.957981 8.50004 11.1205
-5.06058 7.50406 -4.90875
-0.0857561 13.5055 18.9381
-4.07594 -18.8322 5.97327
0.878696 -2.20799 -15.9379
21.5601 -12.8224 -4.56243
-13.8201 7.42851 -2.33305
-19.1147 -14.8146 -12.0051
1.40399 1.29629 -14.0762
8.13094 -9.5397 -5.04582
6.64943 -3.54014 -10.0761
12.3837 -12.6361 2.56975
6.77982 4.13823 6.52066
-23.6996 16.261 -4.59426
0.699771 -13.1209 -0.424966
8.187 7.24799 2.99056
16.8148 -17.802 6.63338
-7.97903 -2.22574 -21.5077
-9.92472 3.51399 -15.4548
3.91802 8.24901 8.9957
1.71756 3.3098 -13.1781
-6.4998 26.1524 0.888464
1.6473 -1.61724 -22.6244
11.4933 29.9017 2.94188
1.70566 11.3296 -16.4352
-14.3885 -1.74398 -7.25796
-8.99531 7.71386 -6.87343
25.755 12.1925 -23.9601
10.5738 -22.2684 15.7644
-2.29858 -6.8373 -7.14594
-1.41324 -5.11864 1.90766
-11.2715 -12.5698 1.36527
-9.21981 -22.9732 14.4149
-7.44541 0.666477 7.67874
-4.95454 -17.3359 0.865771
-1.77864 8.25615 -2.19583
17.514 -20.4288 7.49621
7.88185 -4.98157 0.262996
-2.03017 3.75831 -6.95798
14.229 9.01032 2.43008
-14.88 -6.45443 0.562184
0.381218 1.46025 1.37777
19.6401 -8.69646 -16.2029
6.08098 0.895086 26.9733
7.24094 -13.19 -4.68701
4.45713 8.77592 14.4504
-8.68074 -16.7597 -3.50745
-2.82609 2.87984 4.90476
-17.4156 -3.00607 -2.47685
4.89902 -11.2138 8.43281
-15.5262 23.2574 -4.7232
-1.8228 -9.72517 7.52792
-11.6194 -11.8182 -10.6215
-11.9977 -10.1002 -8.0973
7.20654 -2.5652 10.4103
-1.9901 -4.35762 6.1883
6.74535 -4.41468 7.37722
-1.18574 -3.17937 -12.1646
2.61951 -8.34662 4.3183
-23.9084 -6.38214 9.2399
-11.4838 18.0281 -6.65015
1.70166 -10.8323 3.3971
10.8792 -4.99844 -13.3987
-0.160714 -7.25072 -4.14447
10.1758 2.54253 8.01118
5.95662 -13.5749 -2.35239
-7.67301 28.4666 -1.77017
10.8496 2.74312 -11.7034
-6.67081 -11.0894 3.81868
-10.9624 -14.6609 6.87978
3.07206 16.3241 -17.2201
-7.71598 17.8253 3.40575
-15.4308 -3.09325 17.3898
-7.40536 -29.4638 17.5674
-12.6437 -2.64181 -1.68311
-14.0278 -14.7995 -23.1497
-17.8066 1.85395 -1.69425
-2.91104 3.40777 -3.89653
6.0427 -3.70852 26.0735
-15.0078 14.4043 -7.73298
-28.2184 -1.43613 -8.16188
2.33145 -3.64967 -8.41738
18.8329 2.63492 -8.89701
8.55395 -6.79413 6.83116
11.5613 -9.36021 3.87184
-23.5642 -6.12836 -2.90387
5.0089 2.653 -0.600092
3.50695 -14.0206 -2.22641
25.5624 15.6375 -14.9972
6.95732 -7.39087 -3.3595
2.04147 -15.6918 -3.43887
15.5003 8.21866 2.7979
2.97237 10.9889 3.26892
4.58383 -25.2933 -8.22898
4.55776 -0.150403 -16.3929
4.45111 16.8903 8.41132
7.59544 0.179697 -15.0511
13.754 -11.4157 -18.0738
-19.9889 -13.8284 -6.43393
15.3901 8.79659 -12.3073
-3.01454 -10.2901 -2.8876
-7.79826 -6.13159 -7.02437
-18.3633 2.7533 -5.95589
11.1361 6.05115 7.56649
17.708 4.67174 2.54005
-4.46984 6.0439 -1.62357
-6.57371 -17.0192 6.50287
2.35595 16.9762 -13.5084
0.194547 23.0259 -15.6274
-3.73039 -9.02105 2.27378
10.3734 -8.75094 -7.02471
-19.9399 11.2487 20.3064
2.63492 -4.24012 -10.4438
-23.2628 7.09411 12.8733
18.0966 -15.426 6.30877
17.8846 -3.26991 2.65572
-15.1165 5.74762 1.63264
5.76496 -23.3164 -5.95441
-5.55008 -31.5466 0.693599
-10.7864 -8.66216 32.6004
-22.1917 3.71469 13.5684
-10.057 1.55613 -4.82456
5.05524 -15.6235 -15.6629
2.01898 -4.44813 -3.93613
13.3432 3.90077 -6.29118
11.0958 6.21608 -8.23076
20.2523 11.0629 -7.02827
0.712791 -18.7634 8.86596
11.2219 -19.8545 0.638427
-12.1506 -22.2286 12.2254
-1.11493 -7.36843 -8.61056
-6.70864 5.88777 16.2315
-8.72517 20.3727 5.44574
11.2072 -4.78304 -6.26849
-7.96813 12.0564 7.29231
1.90112 21.7664 -1.24363
7.0372 19.2354 8.71916
-6.14546 1.83672 12.4374
0.0497688 1.89191 -19.711
-5.96612 -3.78504 6.28089
-0.654165 -5.4267 -16.9535
5.3459 8.27862 9.58152
-16.0445 1.19625 14.3906
10.3272 -15.1678 7.26006
-2.45339 11.8832 -13.1388
-7.00875 -11.664 1.73082
-7.14725 2.61162 7.01752
-12.0473 0.387845 2.14771
-3.82227 25.5666 -13.7195
-11.2788 8.44824 5.43161
-14.5521 -5.2484 -2.09718
14.477 4.08938 -6.91897
-2.66005 1.30788 21.1505
12.5639 0.195397 -23.4446
-8.28651 18.6307 0.24981
3.982 11.4408 -5.34845
-0.168736 -1.02826 10.1372
-4.30095 3.96403 1.28905
13.2983 0.210772 17.85
2.65868 5.67885 -24.9312
-1.43339 -1.02801 -14.4514
-11.2656 -4.59711 -3.16025
17.284 -11.1116 1.75582
3.0806 -0.915295 -23.2753
3.57508 -12.5757 -6.83451
9.97426 14.9813 15.6061
-12.163 -2.08678 11.1293
-8.20154 -31.9849 16.9908
5.27292 -3.89665 2.36618
6.62982 10.0978 -9.7617
14.2518 -21.1389 3.98202
2.0657 9.63284 -20.579
-5.92968 -2.689 -8.17008
-20.7251 -6.05957 12.7519
15.8282 -22.8738 -13.6436
-11.5221 -6.29961 -4.17899
1.95957 15.205 -9.6336
16.1833 -11.1135 -6.71561
2.12997 -2.62594 8.49623
-12.1351 8.18438 7.86009
1.57867 16.4943 11.1121
3.31705 -5.97769 20.448
-3.32565 -8.83416 -1.3323
9.05826 4.41104 -4.02988
20.3905 -11.9251 7.39247
21.0359 0.475493 1.19126
15.9653 -2.87676 0.309809
8.15466 21.832 4.5063
15.2126 -6.12667 -8.58591
11.7943 0.839769 4.40844
1.77248 0.878929 -2.47439
5.61209 8.4474 -0.368611
-2.38129 -18.8682 3.55915
18.7361 -2.55911 13.5262
-0.741525 5.53504 18.125
-3.39816 0.789363 -12.4591
18.305 -30.8402 9.9141
-7.42677 -3.36039 -3.46923
1.65022 -2.40126 2.95234
17.298 10.0784 14.5389
-13.5707 2.80642 2.09005
9.93368 -9.62648 7.2941
-0.812607 14.8296 -18.4065
18.6713 -6.70318 -14.289
-17.0359 8.459 -16.5354
-5.83953 14.2627 19.7217
21.687 -3.66789 6.58643
-1.83934 -3.24655 9.31957
12.8544 1.44364 -5.63911
20.1099 18.0056 8.96016
0.551087 7.82545 -8.30396
10.5553 -8.49573 -9.42547
-10.9825 -4.00032 3.24442
15.708 -1.00625 -2.73207
-3.91691 -5.63184 -2.20297
19.5449 4.85651 9.4295
-19.6609 -4.45163 6.3484
-21.4504 -21.7126 -11.9409
1.45747 -9.24845 -3.17093
-1.00857 12.7586 0.611961
8.8583 -4.11165 -6.9458
-12.5743 16.2245 -8.39035
10.6956 2.22282 7.81401
10.0055 -2.2577 -16.9986
6.526 -3.73676 -0.880499
2.03561 -0.692368 8.21468
-7.22324 0.679116 10.6496
-3.93261 5.3522 19.1041
8.55016 -0.345207 -3.03024
-13.606 -2.38181 8.68939
5.10043 -9.42833 -1.27076
10.741 5.76357 -9.64451
8.86652 4.32679 2.93181
5.97965 6.74156 -8.78362
-22.1282 3.14329 7.28735
-10.5041 19.0859 20.0413
1.40244 -1.18931 5.32463
-13.4301 23.7223 -5.62685
7.22675 -3.39788 16.8262
7.74607 7.71958 6.68436
-4.41329 9.88582 6.80618
-7.76384 8.208 -5.39681
-1.89121 -18.5865 6.79988
-12.1271 -9.01871 -3.1212
-13.913 -12.2238 13.4931
-10.3789 -0.291123 -1.85147
-4.86544 10.2216 0.873233
-15.3863 -7.61073 -15.9757
-6.399 -5.40269 5.65074
2.33138 -7.46365 11.209
16.5084 18.6051 -24.8802
-10.1797 -5.68425 5.91824
9.32589 1.72618 2.83938
-4.80094 -0.449542 -1.87556
35.708 -3.47154 7.12631
-17.5234 -4.84358 -18.4235
-5.22146 -26.4906 6.84141
-5.50036 -19.77 -1.24973
-23.747 -6.90294 1.04403
11.6184 10.1692 -3.53719
-16.6592 11.9635 -9.79231
2.74475 16.4312 2.43495
19.2064 22.0175 -6.93194
0.294685 12.5932 -6.63979
0.710451 2.49877 -11.5189
18.1012 2.9145 -11.9251
-6.3085 -8.97629 2.17981
-11.3919 14.7275 0.484206
-6.99283 14.3498 -3.91954
2.27204 24.5566 4.03196
20.7507 -11.0815 -6.29834
-8.28883 8.42863 11.5563
-26.667 -13.2857 1.98081
16.1716 21.1427 -3.19476
-12.9843 -1.06881 -25.3199
0.265004 -0.730564 -2.03202
-15.9085 12.1577 -8.72735
-10.4374 -8.01998 24.2606
-11.2236 -5.04519 -2.94047
-19.2026 9.02434 0.563334
11.0185 -7.15768 -6.98738
3.14314 -15.5547 10.7293
0.845588 7.6394 -0.253007
4.1586 -5.45173 11.8268
2.34505 -21.3958 5.52225
1.26053 4.24949 0.0608975
4.22935 9.10352 -19.1878
12.7133 -2.5617 -4.69329
-16.8364 -0.941215 10.7362
0.326514 9.75472 -9.84889
-3.06372 6.30845 17.8864
6.84914 1.75104 -9.80247
12.8807 -20.7243 -18.2149
16.2403 -8.44034 -0.893769
-11.9699 -9.26821 6.09621
-2.01542 -20.9207 -4.23212
-2.99443 -2.51325 -3.72795
4.1481 -6.58022 3.44922
-7.92803 -1.46489 -2.16327
4.65928 -6.10313 7.48556
15.0941 -8.89275 6.91509
3.7614 3.10958 -1.33516
15.2631 -23.3918 -9.78691
-7.9626 -5.25975 5.56491
12.3261 25.5533 -7.41539
11.3595 9.83326 4.19251
0.578241 6.70128 6.6016
-10.476 8.69916 2.69401
7.27838 -11.9522 4.39882
6.89792 -10.3912 -11.9635
10.9837 4.98569 0.367297
14.9727 7.24717 -11.0036
-7.89818 4.13914 6.22483
-8.79293 -2.55664 1.73373
1.41503 2.0423 7.07742
0.229315 5.20432 5.46671
-6.24162 6.69649 -0.139847
-2.92422 -1.48168 15.308
10.086 2.37255 -13.7815
5.98508 13.3548 19.8974
-0.115283 -8.65002 -12.2465
5.7052 1.16692 16.6628
1.9563 -0.802618 -16.4299
-0.0618009 -3.31428 0.0315063
-5.66168 0.672561 -28.636
4.8974 5.7414 0.687334
-16.7271 0.874497 -1.907
-18.7605 -8.27208 5.81027
1.60143 6.35726 2.19654
-12.1805 0.122288 5.39613
-9.03936 13.5599 -15.3011
7.20281 -10.1702 11.2505
-2.68805 -15.5582 13.8413
-0.932032 2.61583 5.45807
1.83998 -16.4742 -6.18123
-6.76306 -4.08795 10.2829
12.9921 9.54522 5.30128
2.3829 -4.24652 -3.85576
-8.35751 6.97161 15.1956
-4.39137 -24.6494 2.33013
-19.4256 5.54995 2.64165
9.90736 -13.009 6.95445
8.88302 -13.0738 -14.1177
10.4545 7.11177 7.13989
6.10274 -15.1732 2.44004
2.69768 2.31256 2.72969
9.01007 -8.89469 -0.694924
18.4158 -24.2778 2.91306
-1.33155 16.3907 -13.5092
-17.6397 -11.2332 -10.3228
-2.60225 5.56595 10.0455
14.5987 -17.2522 11.2583
10.36 2.0104 9.55849
10.0786 -17.2165 11.9404
-0.336929 13.4369 -15.3498
18.1267 -17.8386 -10.4367
-6.00833 -18.4704 -7.43918
-20.8421 2.37623 -5.0819
10.2388 -11.25 -10.0831
5.58152 -14.1091 27.8701
-15.2361 -4.2259 -17.5483
-10.0578 -10.4245 -3.49767
-9.29125 15.0484 -1.62721
5.81215 -7.3059 -0.259331
-7.00789 -1.67462 3.74941
-15.0962 -1.50773 6.75227
-8.00386 -2.22676 -7.58565
-0.665416 0.287425 -11.8505
6.74916 -22.1252 6.73568
-1.88111 16.8385 3.35342
-9.44119 -2.87801 1.85951
10.0484 15.2529 11.0665
7.91492 4.11255 -0.0212147
1.89772 -15.1328 10.8085
-10.492 5.94146 10.0644
0.617259 -1.73887 12.1787
-12.1391 -8.96163 -15.4766
13.9588 -6.15103 -7.43052
-7.23971 2.95822 -7.86549
-10.6326 -12.7942 9.7059
-4.67275 -11.7397 10.5041
-2.51021 6.92674 -5.29675
8.37719 -1.58007 -14.8157
-8.30762 18.1578 17.4468
-0.597458 5.53149 -6.28177
-2.28827 -16.1611 5.38752
-4.77464 -8.29283 4.69896
-5.69568 8.10484 4.27481
4.3447 13.4376 -4.13045
-6.54677 6.61511 -32.6247
9.27703 18.8369 9.78344
17.6817 -7.81691 17.0589
10.5795 -8.99961 -13.4527
11.8114 -6.85456 -14.8153
-1.82923 -6.58937 -1.91567
-0.686212 -27.601 2.86344
4.20119 -4.59203 -7.12851
-15.3536 -9.60626 -9.19332
-6.56369 -2.36332 3.33002
-4.86735 -3.77819 -2.71646
-16.4705 2.99753 -15.9874
-17.8024 -13.2117 11.2596
-3.97627 15.0957 20.0941
12.3458 -9.60808 6.7704
2.56787 4.70133 -23.2735
-6.82191 -6.81379 12.3659
-9.36286 3.58846 23.3927
5.50114 14.0432 3.25106
-3.19609 10.6214 2.89589
5.4673 7.53175 2.0746
11.839 -1.64243 -1.20021
-3.01012 -5.54568 -6.40149
-3.97564 -8.35262 -6.67707
6.50955 16.2162 6.5886
-9.774 11.083 -10.9099
-8.06618 -7.29893 -8.64796
13.8321 -6.99811 -20.7134
2.83242 7.49457 -2.52676
-2.71997 -4.46717 -0.129205
8.26263 0.0968735 18.3145
-20.1624 2.84279 -14.5302
-9.27447 -9.94241 7.03562
-8.26353 2.55298 -13.0943
2.40399 -4.09836 -7.12899
9.91794 -5.11872 -3.45012
11.6273 16.2401 0.826293
-2.4071 12.8087 -13.3278
17.2673 13.9926 -3.9542
-11.3269 18.4478 3.88558
-6.47324 1.95685 -14.098
12.5304 17.9356 -8.82202
-3.56849 -7.57788 8.4773
5.91939 14.6078 9.25081
6.26535 -0.339067 0.175064
12.8864 24.6866 -1.6151
-3.20675 12.2175 -2.58115
-2.98578 12.2495 3.73697
-19.6458 -12.3509 4.29607
20.5265 -20.0965 -4.18514
12.5883 -15.0254 0.826256
-20.6536 5.15585 2.91871
12.0383 -7.73523 2.86213
-4.5769 3.30223 -19.8287
10.2644 6.80992 -0.0491212
-3.5937 -4.71041 -6.01342
7.04041 -2.59338 -13.8159
-19.0422 -13.8402 6.89957
-2.67381 10.392 15.604
-2.95741 8.90699 12.5446
-12.045 -0.588912 4.59639
2.18119 9.10825 5.79665
1.19703 -6.67624 0.690077
-8.53857 -5.5953 -4.60617
-0.54787 -10.7794 -8.69445
2.21674 3.61592 -0.695436
12.7137 -3.83138 10.2823
9.78663 3.54586 -3.90306
0.302352 -13.6911 -5.2804
-6.31705 10.4374 4.01221
-20.9214 5.30418 -8.52265
-9.39963 -6.69884 -8.78778
3.29788 6.33997 16.0785
-25.2242 -10.3809 -9.76724
4.49153 2.84985 5.41819
1.23414 4.77778 -5.08732
-5.51076 4.86247 9.82678
-7.52005 -15.3387 15.7155
-1.95815 5.41124 -8.97385
-9.25357 -14.5466 5.09422
4.63137 4.1953 -2.83845
-7.43331 15.6519 9.69112
-11.2149 9.21338 -2.2694
36.8784 -1.2642 10.5749
7.28277 4.24055 -7.32611
18.7639 -1.13933 -0.552683
-1.70675 -3.34448 15.5173
-1.07247 9.95112 -6.80913
5.67495 -13.6952 -7.80949
-3.14376 -16.0148 2.57627
5.56502 -6.0093 -5.24367
4.82652 -3.91034 -11.2516
7.94574 19.8341 25.8507
2.44218 -11.8653 -6.10426
-8.42957 2.50818 3.45534
-4.73215 -3.75745 2.82698
3.25213 7.40442 12.7599
-11.8063 -8.24218 -0.771071
1.59629 9.29632 -1.47473
7.7193 -10.8188 -7.33333
-13.985 -4.54967 -19.996
0.160938 8.66963 -5.70945
-10.6191 14.9068 -7.58791
-9.92588 7.31419 -0.120088
7.59423 12.8795 0.846615
0.444914 -3.7682 4.81277
1.85994 4.65648 3.72343
8.80481 -10.5586 -10.1955
-8.69014 -6.79599 -14.653
20.4848 -2.17303 -3.26616
-6.99408 -5.15426 -7.33543
12.9196 18.4305 1.71137
13.0316 -5.16657 7.94366
-1.05632 -18.0738 1.95144
-2.51272 6.43914 -20.6763
0.366452 -19.1974 4.79774
3.92326 -1.51335 23.3656
-5.80495 22.6435 -4.34812
-4.17553 3.56592 4.53116
8.31119 -21.8304 -6.81528
19.8752 17.4971 -15.6283
-21.4156 12.2591 -10.386
4.0323 -15.7706 -5.41585
3.51359 9.42684 9.75297
-12.5058 3.58323 12.5916
-1.28586 5.88467 3.82563
-10.308 12.3782 -22.6078
10.355 25.0733 -5.56478
3.80337 5.52524 4.58205
-3.57815 -8.49551 23.2665
-0.837718 6.32568 -4.13366
8.02483 -7.14432 -10.4915
-25.2676 -4.40153 -16.8632
13.5115 1.30961 2.21802
-9.52341 20.4214 -4.22857
-14.6307 -12.6706 9.13066
3.05632 0.804909 -10.5136
-5.74373 -16.7142 -8.3063
19.1392 7.4131 0.869383
0.783317 2.05328 0.620922
11.6993 -1.70138 0.756286
-1.31516 -20.5852 13.7381
-10.2173 -14.7381 8.03767
-7.04885 2.98455 -12.9383
-4.45808 11.1188 -7.32148
15.6008 21.6054 6.95136
0.0872729 6.85451 -4.45758
9.64156 1.18585 23.5412
-8.87903 0.652296 6.73002
-11.8225 5.49042 -16.0503
1.0923 -6.61826 6.06359
10.024 5.64114 -3.85277
-7.64441 -0.720238 -12.0221
8.00973 -4.65024 3.58435
-19.1986 6.57966 -5.06439
-9.36004 6.02162 10.5053
7.30462 12.7152 4.47761
8.68323 -13.3695 -25.5717
-19.6074 8.22982 -12.7779
16.478 3.15087 -4.68991
28.5558 0.652351 8.42329
15.6817 5.08464 -14.9618
-7.47095 -4.3238 -17.8414
-15.0421 16.7372 5.34274
-3.72379 -4.34549 -5.15635
-12.1989 1.34116 3.54328
1.27994 10.5301 13.1476
4.41791 -3.23389 -9.80141
-9.58835 -12.3164 -10.8599
-22.1271 3.05135 -3.79018
10.6596 7.01223 5.98908
-22.9848 -13.3782 -9.87485
1.49792 -11.8517 -4.12975
-9.50739 3.29019 1.41028
19.1549 -9.30673 -7.40662
-14.3875 -9.70496 0.324182
19.8368 -17.1008 -11.9972
-2.93805 -13.2852 -16.5279
4.56808 19.4141 -23.4728
9.05967 8.31014 -2.83402
14.5105 3.59436 3.78768
3.16796 14.8706 -9.27246
-0.841589 -14.7674 -13.6088
6.52687 3.70063 0.817051
-14.0597 13.5667 -1.16035
-19.2411 5.20021 3.38228
2.50549 5.21159 -7.8616
-18.0174 -6.72548 -16.0911
3.25822 -11.742 3.47157
-8.91738 13.6339 10.7529
5.96497 -15.3222 -5.76996
-8.59906 -6.07049 -5.89413
-3.82207 -11.1267 17.5687
-0.192465 -9.31503 -0.562718
-7.25668 12.9639 8.29349
8.86764 7.31412 -1.84357
-6.19465 -4.49561 10.4441
-19.1096 -4.30157 -17.1199
7.65872 -9.35948 -8.00136
2.17828 -7.99207 -1.7804
7.81722 0.102129 -5.73636
10.2339 -0.890843 20.3661
18.4858 14.7438 1.79482
1.67211 -15.6427 -4.31229
1.43183 -0.0934797 -13.1429
-11.7174 -9.06133 -7.00917
4.60108 10.0527 -0.457616
14.7842 2.84837 -11.5224
15.7954 -19.4659 6.3896
-16.8721 -1.19255 -18.112
11.1602 -5.67228 -7.25589
10.0627 7.57306 0.28345
2.06334 -12.0212 -7.4496
-7.24734 -8.52074 -3.30615
-8.49284 12.2942 -5.33066
18.0849 -12.6178 -4.38059
-21.0058 24.9705 -0.758196
9.23021 -9.73467 -2.25633
-0.374221 16.1646 -18.4384
-2.18563 13.9799 11.1368
10.1626 14.0218 -7.16868
15.7148 -15.558 -10.7517
-15.7764 -4.12853 8.51915
-3.16351 22.4278 -6.9394
-9.49304 -0.174826 -11.56
3.87218 5.1979 -21.5163
11.4674 -4.7771 7.8674
9.00089 -3.08134 5.82604
-15.8949 10.6469 13.9111
-1.299 -15.2237 -7.22023
2.59845 4.63746 -19.9185
-1.5905 -5.52468 -6.52085
-1.61239 19.5958 -12.9801
-1.11995 -12.4397 -22.4847
11.3463 13.8698 1.7631
-0.0972634 2.56996 7.53379
13.3414 -5.70019 0.172761
4.56816 3.88033 -8.45824
0.342163 10.6756 6.67572
18.0513 1.64013 -7.74415
-3.24446 -0.574455 -0.0358672
-0.518213 -3.70095 4.0164
-9.01504 7.59731 -9.96559
-12.6082 -7.3672 2.82341
2.98058 -17.2417 10.4286
5.00278 13.497 1.52778
5.43299 -1.71224 -5.37895
-16.8172 5.60223 6.97865
-13.9478 -10.755 -10.5632
-0.685577 3.51882 4.27052
-0.595414 -7.96405 9.73381
-0.827808 -0.338038 2.54009
-17.1072 0.967042 5.91946
8.91945 1.83093 9.87958
14.6905 5.91509 -10.8413
-13.5172 2.60866 10.4849
-4.02208 3.45353 4.17166
-0.952958 -6.62417 -9.25815
15.2765 0.19034 6.99018
6.09611 -14.7808 3.9887
-0.237153 6.50381 0.0885439
0.759056 7.62844 -9.70574
12.7244 -4.36793 -14.2377
6.97463 -9.65282 0.655397
-0.657303 -5.37363 21.0954
-14.037 7.10953 -4.58801
-0.179911 -8.31815 2.47536
-0.13881 -5.5238 1.91222
0.4051 -7.45398 7.63951
4.20344 0.567776 15.3913
-1.91559 -2.48844 -10.6654
-0.0419728 -9.32256 17.0436
-1.39441 -7.80957 7.07659
0.291719 -4.02509 -7.94914
11.9269 3.66909 -2.65853
-28.9318 19.2226 9.71478
9.11775 2.4192 -3.52995
0.977341 -9.51481 -3.78735
-10.5047 10.1129 -0.188498
18.0302 7.35101 -1.80803
8.47551 7.01723 3.72871
-7.94813 3.93799 -10.7977
8.21451 -21.972 -3.30537
-6.40331 2.66628 14.3808
-6.64356 -2.37185 14.1433
11.5955 5.20355 -7.00995
2.18339 -18.9676 0.763769
11.5754 -1.76564 -9.27135
-5.03313 -3.54776 12.7935
-3.79829 0.245143 -4.34005
-5.18746 -2.77805 -1.00604
17.4208 -5.98536 -11.5256
4.66464 3.75661 -21.7797
11.7727 2.715 11.1006
-22.7332 6.71555 4.08831
1.11598 -4.84308 -10.7652
6.35009 21.5894 -6.1601
4.85414 -14.6926 12.8649
-4.2782 19.1108 -36.0064
-12.7855 1.18266 -8.70485
2.64662 8.17998 10.0571
-3.80812 10.9052 -2.58488
-11.8173 -0.3678 3.83926
1.84586 -2.70892 -5.93389
16.7516 5.17906 8.41594
-3.0493 -8.15786 4.69918
5.95898 15.4503 -0.759287
-9.36119 2.69998 -6.34659
-19.725 1.08391 -0.399586
-1.41318 10.1956 -12.6928
-11.9287 22.8286 3.97738
-0.598749 10.9293 7.92822
31.4278 -1.51038 8.61541
3.74285 -0.182004 -6.27693
1.05176 -16.4968 -3.45661
-4.24987 13.3082 4.70461
13.8361 -8.73409 -23.7006
-15.7022 5.17292 7.43244
-29.6664 12.3162 -7.0165
-8.80597 29.1806 22.8222
-7.86674 -15.1004 9.84219
2.62781 -12.8447 8.93278
5.34002 13.6401 1.42833
-12.5061 -22.0966 23.152
-3.4638 -0.616376 6.97876
-10.2251 10.7113 20.6221
14.219 -0.819279 6.79076
-7.9806 -4.4353 7.3247
-0.594243 -5.7816 3.92071
10.8437 -15.0918 -7.56864
5.52388 -3.21407 -7.89139
-1.33237 5.14993 -8.01238
-2.67429 4.83652 -1.1007
-3.23048 -23.3923 4.33758
-15.8135 -0.00598892 -8.87394
8.2245 -16.8295 -6.29687
-12.1947 -16.1774 14.0673
-1.52222 -14.0025 8.35241
-21.3329 13.4171 7.07704
4.8823 -3.72142 -0.609219
4.57784 -18.8291 15.5722
-0.289579 20.8239 1.15989
9.03195 -3.03662 8.23914
5.53699 -4.87151 -2.20741
-11.3502 8.85336 18.6343
6.66931 10.5016 -9.38531
-1.53367 17.4037 9.58266
-0.153734 -5.92997 -17.0533
1.83096 -2.72211 6.48609
-0.330413 0.293762 5.22595
4.25359 -13.0885 15.9691
5.42145 -11.7412 -13.5089
-0.686909 6.14756 4.54548
7.41381 10.5962 -6.49248
21.0897 -5.22982 1.56676
28.2823 -24.7274 -1.55316
-4.73996 9.05492 -8.64682
1.84874 0.0333548 -1.81575
-1.95494 -16.3561 14.1593
-2.85473 10.0076 2.55259
-20.9012 -5.06886 1.94451
-5.07406 -11.3829 -0.493642
-8.85935 -7.50187 0.23008
9.41533 -1.1064 -11.99
-9.05644 -0.200245 -9.21757
8.74043 -11.5147 0.302721
2.40862 4.64534 4.67461
-17.7937 -12.4652 15.4926
-5.87368 6.2387 -7.03326
-19.8328 -1.6738 0.988665
0.298936 16.9826 4.66939
5.69857 8.58145 -6.11373
-5.17741 11.0691 -4.80926
5.5862 0.929052 -2.48993
-9.86467 -15.2445 -6.58922
3.49342 -6.10697 5.3896
14.4167 4.1909 8.02362
5.15244 20.8855 -5.58285
2.91098 17.5409 3.2718
-15.2948 -3.03907 -12.0803
0.620043 -6.97923 5.33573
15.0071 -6.20377 12.4821
1.43869 -1.37589 -27.3905
14.4407 19.6052 4.04075
-5.33549 4.70177 -5.99008
-8.04071 12.0507 -1.67953
-1.26475 -1.95002 -3.58477
27.4147 42.6544 -1.98732
1.35949 5.80356 -19.1766
4.00239 -8.70997 32.0614
21.5243 12.3817 4.4364
-18.1716 13.6572 -4.38182
6.2062 -4.98661 -8.40885
13.3281 14.1897 -7.47803
-1.73303 -2.21114 1.04773
-9.215 -3.94802 1.39947
-11.3055 -9.40291 5.5338
5.46729 3.68732 -3.70869
13.5583 -12.7203 14.23
-9.00983 -5.33319 -2.1192
18.7529 10.8628 -5.29592
8.51785 -11.7044 0.505365
-8.60942 -2.13337 -13.2619
-0.88986 -5.0849 -5.23132
-3.83616 -6.06071 4.02195
6.27741 -0.467589 -11.0487
14.5844 17.6189 -4.539
5.42359 -13.0401 9.19014
-1.53165 9.24597 4.60108
-5.49242 18.1993 -0.0801265
9.53555 17.2579 5.96334
11.1941 -6.35473 -2.35957
-17.626 6.26547 -2.97779
-5.81364 19.7473 -17.6784
18.3161 -17.6109 11.3444
14.7176 4.30569 21.3889
4.19648 -6.50339 -24.0946
-1.78738 -2.68847 -0.944032
-7.57824 -16.2551 2.1641
-15.9628 11.7104 14.2492
3.34317 -13.6136 10.1438
2.23058 0.604223 2.03693
1.26697 23.0859 8.02686
2.3575 -7.02656 11.4718
0.109047 4.73539 1.43596
-2.70467 19.5919 -15.91
3.45144 -14.2631 -20.0353
0.17817 -1.53893 5.39652
6.86339 1.35597 17.2887
5.0379 0.811227 20.719
7.36981 -5.92258 10.5025
-7.01106 -0.409006 -6.83609
13.6835 -17.7717 10.6389
3.83137 4.24457 -15.9416
22.1101 8.57447 14.0285
11.3954 -7.39822 -3.55537
12.5154 -10.2041 -11.8136
15.1356 4.27829 19.8302
1.58202 -13.776 12.5718
3.12985 3.61585 -17.9231
-19.3592 -8.2554 4.43365
-12.1201 -15.205 -1.60698
4.33118 12.2913 8.4491
-10.5027 -3.32626 21.6448
-7.72322 10.6571 8.60892
-1.14974 8.70941 2.94078
-2.75747 -19.4137 -13.0547
8.90966 -9.01741 -25.2252
-2.56476 -0.769873 -1.39625
-5.65994 -9.19435 2.92809
0.815246 -1.71286 -13.5438
19.228 -10.6062 3.52607
6.32977 19.7667 10.8608
15.8164 8.87138 3.5755
-9.56624 8.83651 -0.345728
-7.70121 -15.2218 3.0517
3.69848 -2.17768 10.5232
-2.59104 0.867077 -5.09345
18.9879 -8.58563 6.03611
6.88182 -3.85309 21.29
11.9228 -14.3628 6.12012
6.27766 -21.3292 18.698
13.7589 3.26883 8.97401
5.52397 -1.63689 -12.4881
-12.932 -0.371866 1.11672
-4.89214 -10.5458 -12.5183
1.66796 5.66834 5.04228
-8.21726 4.27746 7.54559
12.1954 5.03306 1.82477
5.04007 7.32099 -10.092
-1.2876 13.33 -10.6811
5.41533 -4.02892 1.61326
-14.0619 -6.98597 18.8501
-20.6929 -11.7351 0.862787
1.06145 -27.6101 -1.62498
12.5448 0.376012 0.70712
16.028 -6.96981 3.5547
-8.79152 2.53737 9.30314
0.908741 -0.80806 -3.99826
-4.46813 13.5832 -0.2471
-5.2531 -14.8128 6.48458
9.66947 -16.1711 3.56695
-1.41802 2.67427 3.77352
-16.4428 6.9824 -2.03896
21.2809 27.4509 -14.7792
3.31301 3.84516 -2.87266
1.61735 2.47072 -2.57769
1.02295 3.27346 9.97389
-7.65633 6.82355 11.5322
-3.72235 -10.7484 10.7214
19.3242 28.1547 4.4106
6.43748 -13.8652 4.18191
-8.07977 3.18758 15.0982
7.65104 -15.1727 0.440621
-5.8161 9.47816 9.8444
-0.626707 -9.02669 18.0954
6.98259 -5.65788 0.903429
1.2734 8.31405 -39.0099
17.0002 7.8967 -14.2627
-3.77241 6.22968 0.894543
-1.25823 -2.77366 -19.1324
3.30148 -17.9069 0.030216
15.3388 -4.3559 12.4011
8.3908 3.64921 -8.90822
0.630089 -17.7386 4.86333
-5.02665 0.566617 0.601758
-21.1571 -2.78438 11.3568
-4.22643 9.68646 -6.07346
-1.90532 0.271997 13.1167
9.23119 -18.6413 -10.1566
-1.99105 -5.53783 -7.96677
2.86223 -21.3161 1.89708
-6.75986 32.9174 3.06475
3.11239 21.6555 -0.742871
-12.7766 0.898747 -11.2
1.20009 -12.8966 9.0293
-13.2972 1.2322 2.48903
8.96494 -8.52849 14.4885
6.06254 -11.2807 -1.19331
3.30981 13.9886 -6.15265
6.076 4.54186 -11.1091
19.8941 14.9714 3.47892
-0.963697 -18.5177 4.26834
-4.40234 4.02663 -2.39359
-11.0523 -6.60649 2.9003
-5.61146 -12.6127 10.5599
-7.837 12.5987 3.66425
-4.71844 4.80264 -14.1232
-3.39909 -10.075 -7.03038
-9.84519 22.1638 16.1168
12.192 -21.0981 -9.63126
-8.05375 -11.5472 -10.7185
-6.302 -11.5999 7.09378
13.9774 -10.2911 -33.4973
12.6523 -4.38777 3.52615
5.61961 -20.9682 -20.4667
7.87842 23.7999 21.5007
-3.4364 -3.03135 12.8423
-11.3897 17.2498 -13.1478
-9.1025 -15.8858 8.99994
19.9878 -9.20318 10.7102
4.31891 1.41748 -2.35626
15.6954 -3.08795 -15.2814
-5.77834 -0.638544 4.91156
2.17028 2.59963 15.7164
15.8484 -0.194247 -11.338
-8.03784 1.04553 23.461
-8.25672 10.6701 0.64015
9.16151 5.25298 0.599646
-3.76877 0.519115 -12.5779
-8.06975 7.82431 14.8681
19.1798 6.28772 10.2853
-13.156 15.075 1.67662
-1.99158 -6.09034 10.9288
28.1639 2.1883 5.28155
5.26181 2.16394 18.2792
21.876 -4.7681 15.9197
1.5713 1.99642 7.09006
16.2885 -5.36716 3.94323
3.85585 -7.48334 -10.8328
5.95465 5.278 5.3306
16.172 -5.24546 6.81058
3.3541 2.41186 1.50421
-10.3501 11.2821 8.95555
-5.67944 -5.5161 6.39916
2.27425 16.3795 17.7007
12.892 3.8743 9.80653
9.67979 8.94265 6.95404
-22.0659 1.56162 10.3671
-18.1471 -9.31637 10.2598
11.8015 -16.4062 1.75188
8.379 5.31462 2.36712
-14.1689 -7.56358 -9.56494
4.69201 9.273 8.41761
6.68847 4.26806 3.21121
6.54115 4.50717 -1.47278
-12.2038 16.5248 1.4299
-8.99994 -1.97465 -11.0596
0.00872208 -7.36193 -2.64746
-0.0780453 -23.401 3.76121
-13.3578 4.47286 -12.3216
7.17351 13.6997 20.4495
-1.49346 -13.5175 -7.60117
22.7432 -1.0829 3.92826
5.95288 -1.39419 -14.0246
-8.77449 6.30909 4.12242
-10.8755 8.04678 -15.4092
8.52751 10.7817 -11.6587
-0.556168 23.1683 -2.71946
-9.62117 -4.23041 13.4879
12.1711 17.7647 -11.1487
-25.3998 -8.30572 11.1032
2.94612 8.07768 -8.54715
-19.481 1.77771 7.94275
-4.69055 2.0791 9.58926
0.0719344 -19.486 -19.9494
-4.56266 14.6066 -7.11573
4.57084 1.50217 -7.72298
3.51535 0.583335 5.40046
-17.5443 -4.63557 1.05284
10.8565 -13.4215 11.8257
-7.13336 4.96321 -13.1478
-5.13018 6.44667 -6.51636
-14.5115 -3.1217 17.0437
-24.1406 -5.94921 10.2862
-14.2562 -23.7055 -24.4019
-14.4255 -0.591303 4.34284
-5.4082 6.69901 5.8898
8.05645 -27.6924 -10.0855
-1.65652 12.0053 -7.34783
-6.78566 12.8627 -16.8204
5.78222 -11.6277 4.1449
11.2001 14.8599 -9.29958
1.29809 -4.4226 -9.83529
-6.1316 -6.98021 -3.55993
-4.42073 2.99972 12.2272
4.957 -10.8322 15.4525
-8.81591 -14.9595 16.077
-1.84042 -4.7586 17.7349
5.16811 2.47166 0.207948
-2.12841 8.42267 3.93751
16.784 -4.12368 -0.668278
3.7608 -7.73078 -14.5264
0.743232 -23.4448 0.0634364
-6.67449 -7.24641 5.22475
-3.66907 3.61999 -9.9714
8.00561 -5.85432 -6.89053
1.53138 7.88788 2.48194
0.0950322 5.73421 2.20081
-8.98405 25.1447 4.1624
12.2752 24.9138 3.41329
-14.2223 0.147386 -1.69117
12.4787 -1.94454 -0.442191
-9.5711 12.8359 1.12351
3.53486 -2.39639 7.68461
-15.8038 5.20229 3.26599
-9.33529 3.99339 26.82
-12.276 4.43718 12.1465
-9.29539 -5.95842 -7.37551
1.8218 -7.86084 -8.01395
-2.00062 -9.39097 -17.2268
3.27082 11.3716 -3.39822
-10.7623 3.5001 -20.5984
-10.4858 -6.49849 -22.1305
-2.23282 -10.0941 -11.2759
8.15658 -4.37288 -3.19624
15.5292 -9.61513 7.55178
16.1538 -3.57985 12.3028
-3.55426 4.75526 13.003
-12.6354 -6.63121 -6.56652
-5.67233 11.1079 -11.7747
-27.1234 -11.7325 22.0888
-13.2303 4.02224 19.2072
-0.698431 6.44449 9.96435
6.37617 8.86042 -2.70841
-14.4376 -14.0631 -6.28082
11.9638 -4.11115 -11.9215
-2.33405 10.5195 6.42157
-9.66044 -3.11559 8.63826
-4.14511 -5.07568 -21.9756
-5.11386 -11.4932 -9.52189
13.6401 0.989191 1.24374
-8.37071 -10.4718 -3.04191
9.51198 -20.9912 2.23124
-10.0761 10.8189 10.9348
5.52139 -32.8972 3.72093
27.3687 -6.86524 5.30081
-20.8798 2.14116 13.0031
-6.55863 -9.9138 -16.5163
18.356 14.2548 0.562082
-24.8005 -8.26018 13.8545
-0.0997896 18.3997 -10.741
2.35419 1.35477 -8.5015
-13.7203 -3.35111 12.4109
0.570937 10.6374 -14.808
-9.72105 -15.541 13.0717
-0.355485 12.1742 -2.47504
-19.055 1.6546 -17.5317
-9.22353 -11.0041 1.92306
9.27325 -6.56965 -0.575721
-21.3501 -0.592625 10.973
6.63118 11.4143 1.87513
-15.0416 -7.53377 -14.769
-0.558406 2.39696 16.9279
-13.7894 -3.56531 -0.215091
-0.785705 13.0558 4.03224
-4.26321 12.1309 27.1848
15.5731 7.83592 4.5844
-8.40548 10.6559 31.7743
16.4705 -4.49196 4.11006
4.5062 10.6829 -21.2016
7.22683 9.29116 2.52173
3.23223 14.5203 -37.4035
-0.209241 16.51 11.3667
7.74233 8.16604 -7.39061
13.2581 -4.87651 -10.0178
-9.4996 -10.0189 -5.36688
1.17683 6.28359 0.824989
3.55816 14.5555 5.52476
-2.35306 3.32642 2.32389
0.969976 13.8381 14.4967
-1.99514 3.36783 -5.71086
17.2104 -21.4474 5.80838
-5.76756 -3.46748 -18.2709
-3.51355 15.5072 7.02845
11.9656 2.16029 -8.47171
-8.5388 5.53168 0.154807
11.4776 5.95344 -8.54954
35.0847 -2.27358 -8.94342
-5.44611 -0.688872 5.5674
-8.29961 -12.0307 -5.82691
10.4483 -0.891162 21.886
-8.51183 1.32042 4.84924
-4.51137 3.92265 -16.8021
-7.08526 -3.21697 0.54869
-17.0875 -3.75541 -8.92837
-1.86174 11.6369 5.97227
9.28659 14.4484 7.23581
1.97007 -11.555 1.27665
-3.62857 -8.81124 2.01012
13.957 14.3749 14.7329
12.4492 17.0511 -3.70175
12.9743 -1.22298 -16.4967
-3.44728 -10.1034 -4.06154
-3.94341 -18.6387 1.56701
-38.5471 3.60878 -19.4528
-3.29257 7.79364 2.43778
-11.8046 -1.70863 -17.7779
2.66906 -6.45605 3.60847
-18.1505 -0.201274 -6.06669
4.13265 -12.5796 -15.1835
-10.8441 0.81161 14.3336
-17.2751 -14.4682 -11.6787
-8.51429 5.7352 11.5523
8.5857 0.744558 -12.4795
-3.56177 -12.7539 -21.4478
19.3435 -0.961089 -0.124794
4.26264 -1.98305 14.7369
5.17496 -22.947 9.94886
0.753886 -13.3177 14.0976
3.20778 -3.44703 -8.54461
20.1898 -8.82626 12.2726
-15.2798 -5.70691 0.704571
3.21509 -11.1416 7.10868
-2.89819 -5.81409 5.86053
14.3097 -1.78003 -7.03938
-12.766 -14.1443 3.29953
-20.5317 -21.8807 6.09127
4.67056 4.0084 20.2266
8.76945 -7.77935 21.3435
1.85289 0.980223 13.9364
-3.48846 9.42957 6.35831
-7.95759 -11.5995 -4.01198
-7.27011 -12.3782 -28.4385
8.94857 -3.54348 -7.43433
15.9727 -18.5182 9.77024
-12.9757 8.24827 -13.833
30.4105 -14.5009 -9.6661
4.38592 -4.39381 5.71412
-9.81894 -5.02654 -21.2364
-6.43976 -9.8609 -4.53258
5.23427 -14.8126 0.43302
-23.9411 -5.58776 13.8719
7.69093 -13.8018 2.4257
18.7794 -16.1708 1.71792
-7.84233 4.22312 4.5106
4.2151 -9.38611 11.3414
2.25302 11.5291 -25.0209
-3.62275 27.6901 -3.53763
2.22165 -14.4623 -13.545
-6.19966 25.966 2.98543
11.55 16.4136 0.479003
-9.84442 3.81815 -12.9573
7.09039 9.1574 -2.42877
-7.20897 -1.3026 6.63577
3.03522 20.5588 11.0655
3.92946 -13.4134 -0.891018
-1.52095 1.09742 -6.31588
15.1558 -7.83778 -7.12167
5.36219 -6.37952 -4.00211
-7.20437 -17.8199 12.3135
-20.2955 -8.54438 -4.92562
-8.49445 -31.1063 5.9827
-6.06703 -0.929148 -10.6856
10.7987 -3.9128 -9.41399
-1.43118 -11.6167 -24.7999
5.73948 26.969 1.33491
0.39929 8.21015 -7.18882
5.29112 -0.772835 1.73392
0.378766 6.89883 29.1309
-2.66896 -14.4841 5.79956
11.6854 1.94467 1.04166
6.26344 -7.99963 -16.6151
20.1556 -2.46014 -14.3414
7.34496 -13.1959 -15.2211
0.32162 10.4081 -0.305889
3.43025 0.677468 7.31873
-5.29585 -29.6914 -6.44221
9.27806 -1.66987 -2.41109
-8.99994 -2.01451 4.50077
-18.0141 -3.47817 -1.00097
-0.767285 -18.8301 21.5307
-6.34491 -6.31427 -4.16099
2.98758 -3.1476 3.23749
-14.1202 7.92918 -33.0128
-0.0302406 1.40887 4.20577
-4.59385 -12.0538 -2.90634
-13.0246 -5.78236 17.7673
11.8978 5.48144 -5.61594
3.24382 16.3218 25.2913
4.56123 -8.83182 6.33189
10.3503 7.56035 15.9026
-1.18886 -5.33002 3.07022
-4.23458 17.3817 6.66308
1.1039 5.20616 14.6389
5.43229 9.94892 -13.7121
5.26002 -4.38298 -2.97445
-7.39079 12.3413 0.308658
14.6512 -1.07218 11.4847
-2.05421 -2.18625 16.3466
-0.795232 19.291 12.365
-2.78987 2.91928 8.0173
-10.3317 -0.779217 1.00119
3.12491 9.05308 3.78413
1.5859 -2.22558 14.8176
6.63043 10.0855 24.4594
-2.86076 1.0142 -6.98057
18.8467 18.1844 36.5974
-18.2551 -15.0399 0.17069
10.993 1.41279 7.49484
-8.60315 -6.86952 -9.44013
-19.2838 7.63609 -2.4748
-12.4917 0.244157 9.22405
6.02782 -7.1858 12.0812
-3.14138 11.3773 8.22023
9.99249 14.2842 -3.66739
7.07015 22.7517 -13.8683
-10.3581 7.83987 -0.65345
2.99615 7.27192 -11.9005
-15.1696 -0.359609 18.4316
16.2122 -17.8783 -21.7989
-33.9415 -10.3859 -0.396167
20.4022 13.7628 7.27077
-9.63838 4.69976 9.86647
-16.5105 -12.3646 -6.14699
-17.3847 -6.91459 -0.922927
-2.86792 -20.2463 -3.24228
11.1382 13.0709 -6.17369
-0.860257 -6.08558 -3.84084
-14.9974 4.32693 -5.73006
7.99598 0.869484 -8.05219
-3.24125 17.2403 -5.24576
-11.1097 -18.2878 12.967
10.4694 -16.2811 -9.45263
-29.6468 -3.09616 -10.8423
7.91159 7.0755 -19.4011
-17.0028 -0.019873 -5.73056
-15.157 4.33547 -20.3206
-14.0684 16.5233 -0.215984
-21.0158 32.237 1.22504
-7.50969 -1.67978 0.316564
-19.8039 -8.23671 -6.57671
1.22923 -2.72632 4.88435
6.25379 -9.82369 -11.1055
-14.6527 -2.33682 -19.6155
-2.88351 -8.82172 -13.2506
-3.77737 1.23333 14.1804
1.35148 10.1194 -19.2375
-6.35086 -9.68685 17.7798
-18.1905 4.66659 8.78066
-5.10558 7.66837 8.23896
-18.8418 4.41027 -11.0257
6.70557 -1.99476 7.87266
-19.3862 4.86658 -16.7584
-6.73029 6.502 14.9064
-6.54037 15.3936 12.8137
-6.69129 -14.805 24.9665
-11.0575 12.8717 -13.3484
-5.67575 1.16863 -15.55
-0.277112 -11.2751 2.35045
21.8149 10.2813 11.8145
-9.3297 -7.26461 8.97275
13.1022 -28.2953 -14.8512
18.5784 3.74289 6.35864
3.88142 3.13028 -6.04094
3.48552 16.3196 -3.5137
0.202769 -0.915007 3.86685
-13.2991 -9.1315 -4.25611
-8.03304 11.0166 -17.14
-11.0433 -13.2929 -8.13947
14.3024 15.752 18.2234
-7.87037 1.20625 13.7036
