"B4 Cr16"
1.0
       12.7988538742         0.0000000000         0.0000000000
        0.0000000000        17.1885890961         0.0000000000
        0.0000000000         0.0000000000        14.4373912811
    B   Cr
   60  240
Direct
     0.775149770         0.134294891         0.142737601
     0.775149770         0.134294891         0.342737601
     0.775149770         0.134294891         0.542737601
     0.775149770         0.134294891         0.742737601
     0.775149770         0.134294891         0.942737601
     0.775149770         0.467628224         0.142737601
     0.775149770         0.467628224         0.342737601
     0.775149770         0.467628224         0.542737601
     0.775149770         0.467628224         0.742737601
     0.775149770         0.467628224         0.942737601
     0.775149770         0.800961558         0.142737601
     0.775149770         0.800961558         0.342737601
     0.775149770         0.800961558         0.542737601
     0.775149770         0.800961558         0.742737601
     0.775149770         0.800961558         0.942737601
     0.562695841         0.229523146         0.142716328
     0.562695841         0.229523146         0.342716328
     0.562695841         0.229523146         0.542716328
     0.562695841         0.229523146         0.742716328
     0.562695841         0.229523146         0.942716328
     0.562695841         0.562856479         0.142716328
     0.562695841         0.562856479         0.342716328
     0.562695841         0.562856479         0.542716328
     0.562695841         0.562856479         0.742716328
     0.562695841         0.562856479         0.942716328
     0.562695841         0.896189812         0.142716328
     0.562695841         0.896189812         0.342716328
     0.562695841         0.896189812         0.542716328
     0.562695841         0.896189812         0.742716328
     0.562695841         0.896189812         0.942716328
     0.126028807         0.289986219         0.142985915
     0.126028807         0.289986219         0.342985915
     0.126028807         0.289986219         0.542985915
     0.126028807         0.289986219         0.742985915
     0.126028807         0.289986219         0.942985915
     0.126028807         0.623319552         0.142985915
     0.126028807         0.623319552         0.342985915
     0.126028807         0.623319552         0.542985915
     0.126028807         0.623319552         0.742985915
     0.126028807         0.623319552         0.942985915
     0.126028807         0.956652886         0.142985915
     0.126028807         0.956652886         0.342985915
     0.126028807         0.956652886         0.542985915
     0.126028807         0.956652886         0.742985915
     0.126028807         0.956652886         0.942985915
     0.681473146         0.059995426         0.142654923
     0.681473146         0.059995426         0.342654923
     0.681473146         0.059995426         0.542654923
     0.681473146         0.059995426         0.742654923
     0.681473146         0.059995426         0.942654923
     0.681473146         0.393328760         0.142654923
     0.681473146         0.393328760         0.342654923
     0.681473146         0.393328760         0.542654923
     0.681473146         0.393328760         0.742654923
     0.681473146         0.393328760         0.942654923
     0.681473146         0.726662093         0.142654923
     0.681473146         0.726662093         0.342654923
     0.681473146         0.726662093         0.542654923
     0.681473146         0.726662093         0.742654923
     0.681473146         0.726662093         0.942654923
     0.170856773         0.088437845         0.142998319
     0.170856773         0.088437845         0.342998319
     0.170856773         0.088437845         0.542998319
     0.170856773         0.088437845         0.742998319
     0.170856773         0.088437845         0.942998319
     0.170856773         0.421771178         0.142998319
     0.170856773         0.421771178         0.342998319
     0.170856773         0.421771178         0.542998319
     0.170856773         0.421771178         0.742998319
     0.170856773         0.421771178         0.942998319
     0.170856773         0.755104512         0.142998319
     0.170856773         0.755104512         0.342998319
     0.170856773         0.755104512         0.542998319
     0.170856773         0.755104512         0.742998319
     0.170856773         0.755104512         0.942998319
     0.080717650         0.200864769         0.042842040
     0.080717650         0.200864769         0.242842040
     0.080717650         0.200864769         0.442842040
     0.080717650         0.200864769         0.642842040
     0.080717650         0.200864769         0.842842040
     0.080717650         0.534198103         0.042842040
     0.080717650         0.534198103         0.242842040
     0.080717650         0.534198103         0.442842040
     0.080717650         0.534198103         0.642842040
     0.080717650         0.534198103         0.842842040
     0.080717650         0.867531436         0.042842040
     0.080717650         0.867531436         0.242842040
     0.080717650         0.867531436         0.442842040
     0.080717650         0.867531436         0.642842040
     0.080717650         0.867531436         0.842842040
     0.263938754         0.202329612         0.141887192
     0.263938754         0.202329612         0.341887192
     0.263938754         0.202329612         0.541887192
     0.263938754         0.202329612         0.741887192
     0.263938754         0.202329612         0.941887192
     0.263938754         0.535662945         0.141887192
     0.263938754         0.535662945         0.341887192
     0.263938754         0.535662945         0.541887192
     0.263938754         0.535662945         0.741887192
     0.263938754         0.535662945         0.941887192
     0.263938754         0.868996278         0.141887192
     0.263938754         0.868996278         0.341887192
     0.263938754         0.868996278         0.541887192
     0.263938754         0.868996278         0.741887192
     0.263938754         0.868996278         0.941887192
     0.594960916         0.323875100         0.042787321
     0.594960916         0.323875100         0.242787321
     0.594960916         0.323875100         0.442787321
     0.594960916         0.323875100         0.642787321
     0.594960916         0.323875100         0.842787321
     0.594960916         0.657208434         0.042787321
     0.594960916         0.657208434         0.242787321
     0.594960916         0.657208434         0.442787321
     0.594960916         0.657208434         0.642787321
     0.594960916         0.657208434         0.842787321
     0.594960916         0.990541767         0.042787321
     0.594960916         0.990541767         0.242787321
     0.594960916         0.990541767         0.442787321
     0.594960916         0.990541767         0.642787321
     0.594960916         0.990541767         0.842787321
     0.649781486         0.156232530         0.042715360
     0.649781486         0.156232530         0.242715360
     0.649781486         0.156232530         0.442715360
     0.649781486         0.156232530         0.642715360
     0.649781486         0.156232530         0.842715360
     0.649781486         0.489565863         0.042715360
     0.649781486         0.489565863         0.242715360
     0.649781486         0.489565863         0.442715360
     0.649781486         0.489565863         0.642715360
     0.649781486         0.489565863         0.842715360
     0.649781486         0.822899196         0.042715360
     0.649781486         0.822899196         0.242715360
     0.649781486         0.822899196         0.442715360
     0.649781486         0.822899196         0.642715360
     0.649781486         0.822899196         0.842715360
     0.951136215         0.117574451         0.143231055
     0.951136215         0.117574451         0.343231055
     0.951136215         0.117574451         0.543231055
     0.951136215         0.117574451         0.743231055
     0.951136215         0.117574451         0.943231055
     0.951136215         0.450907785         0.143231055
     0.951136215         0.450907785         0.343231055
     0.951136215         0.450907785         0.543231055
     0.951136215         0.450907785         0.743231055
     0.951136215         0.450907785         0.943231055
     0.951136215         0.784241118         0.143231055
     0.951136215         0.784241118         0.343231055
     0.951136215         0.784241118         0.543231055
     0.951136215         0.784241118         0.743231055
     0.951136215         0.784241118         0.943231055
     0.812031473         0.041703270         0.042515878
     0.812031473         0.041703270         0.242515878
     0.812031473         0.041703270         0.442515878
     0.812031473         0.041703270         0.642515878
     0.812031473         0.041703270         0.842515878
     0.812031473         0.375036603         0.042515878
     0.812031473         0.375036603         0.242515878
     0.812031473         0.375036603         0.442515878
     0.812031473         0.375036603         0.642515878
     0.812031473         0.375036603         0.842515878
     0.812031473         0.708369937         0.042515878
     0.812031473         0.708369937         0.242515878
     0.812031473         0.708369937         0.442515878
     0.812031473         0.708369937         0.642515878
     0.812031473         0.708369937         0.842515878
     0.510071428         0.100808425         0.142094237
     0.510071428         0.100808425         0.342094237
     0.510071428         0.100808425         0.542094237
     0.510071428         0.100808425         0.742094237
     0.510071428         0.100808425         0.942094237
     0.510071428         0.434141759         0.142094237
     0.510071428         0.434141759         0.342094237
     0.510071428         0.434141759         0.542094237
     0.510071428         0.434141759         0.742094237
     0.510071428         0.434141759         0.942094237
     0.510071428         0.767475092         0.142094237
     0.510071428         0.767475092         0.342094237
     0.510071428         0.767475092         0.542094237
     0.510071428         0.767475092         0.742094237
     0.510071428         0.767475092         0.942094237
     0.248022628         0.311682260         0.042897333
     0.248022628         0.311682260         0.242897333
     0.248022628         0.311682260         0.442897333
     0.248022628         0.311682260         0.642897333
     0.248022628         0.311682260         0.842897333
     0.248022628         0.645015593         0.042897333
     0.248022628         0.645015593         0.242897333
     0.248022628         0.645015593         0.442897333
     0.248022628         0.645015593         0.642897333
     0.248022628         0.645015593         0.842897333
     0.248022628         0.978348927         0.042897333
     0.248022628         0.978348927         0.242897333
     0.248022628         0.978348927         0.442897333
     0.248022628         0.978348927         0.642897333
     0.248022628         0.978348927         0.842897333
     0.419676401         0.316732980         0.143102929
     0.419676401         0.316732980         0.343102929
     0.419676401         0.316732980         0.543102929
     0.419676401         0.316732980         0.743102929
     0.419676401         0.316732980         0.943102929
     0.419676401         0.650066313         0.143102929
     0.419676401         0.650066313         0.343102929
     0.419676401         0.650066313         0.543102929
     0.419676401         0.650066313         0.743102929
     0.419676401         0.650066313         0.943102929
     0.419676401         0.983399646         0.143102929
     0.419676401         0.983399646         0.343102929
     0.419676401         0.983399646         0.543102929
     0.419676401         0.983399646         0.743102929
     0.419676401         0.983399646         0.943102929
     0.730932578         0.266391826         0.143048170
     0.730932578         0.266391826         0.343048170
     0.730932578         0.266391826         0.543048170
     0.730932578         0.266391826         0.743048170
     0.730932578         0.266391826         0.943048170
     0.730932578         0.599725159         0.143048170
     0.730932578         0.599725159         0.343048170
     0.730932578         0.599725159         0.543048170
     0.730932578         0.599725159         0.743048170
     0.730932578         0.599725159         0.943048170
     0.730932578         0.933058493         0.143048170
     0.730932578         0.933058493         0.343048170
     0.730932578         0.933058493         0.543048170
     0.730932578         0.933058493         0.743048170
     0.730932578         0.933058493         0.943048170
     0.947273005         0.284813055         0.142723017
     0.947273005         0.284813055         0.342723017
     0.947273005         0.284813055         0.542723017
     0.947273005         0.284813055         0.742723017
     0.947273005         0.284813055         0.942723017
     0.947273005         0.618146388         0.142723017
     0.947273005         0.618146388         0.342723017
     0.947273005         0.618146388         0.542723017
     0.947273005         0.618146388         0.742723017
     0.947273005         0.618146388         0.942723017
     0.947273005         0.951479722         0.142723017
     0.947273005         0.951479722         0.342723017
     0.947273005         0.951479722         0.542723017
     0.947273005         0.951479722         0.742723017
     0.947273005         0.951479722         0.942723017
     0.045540213         0.029349199         0.042849818
     0.045540213         0.029349199         0.242849818
     0.045540213         0.029349199         0.442849818
     0.045540213         0.029349199         0.642849818
     0.045540213         0.029349199         0.842849818
     0.045540213         0.362682533         0.042849818
     0.045540213         0.362682533         0.242849818
     0.045540213         0.362682533         0.442849818
     0.045540213         0.362682533         0.642849818
     0.045540213         0.362682533         0.842849818
     0.045540213         0.696015866         0.042849818
     0.045540213         0.696015866         0.242849818
     0.045540213         0.696015866         0.442849818
     0.045540213         0.696015866         0.642849818
     0.045540213         0.696015866         0.842849818
     0.854584458         0.201736626         0.042909141
     0.854584458         0.201736626         0.242909141
     0.854584458         0.201736626         0.442909141
     0.854584458         0.201736626         0.642909141
     0.854584458         0.201736626         0.842909141
     0.854584458         0.535069960         0.042909141
     0.854584458         0.535069960         0.242909141
     0.854584458         0.535069960         0.442909141
     0.854584458         0.535069960         0.642909141
     0.854584458         0.535069960         0.842909141
     0.854584458         0.868403293         0.042909141
     0.854584458         0.868403293         0.242909141
     0.854584458         0.868403293         0.442909141
     0.854584458         0.868403293         0.642909141
     0.854584458         0.868403293         0.842909141
     0.440964509         0.208458501         0.042481330
     0.440964509         0.208458501         0.242481330
     0.440964509         0.208458501         0.442481330
     0.440964509         0.208458501         0.642481330
     0.440964509         0.208458501         0.842481330
     0.440964509         0.541791835         0.042481330
     0.440964509         0.541791835         0.242481330
     0.440964509         0.541791835         0.442481330
     0.440964509         0.541791835         0.642481330
     0.440964509         0.541791835         0.842481330
     0.440964509         0.875125168         0.042481330
     0.440964509         0.875125168         0.242481330
     0.440964509         0.875125168         0.442481330
     0.440964509         0.875125168         0.642481330
     0.440964509         0.875125168         0.842481330
     0.341853949         0.094046535         0.042040094
     0.341853949         0.094046535         0.242040094
     0.341853949         0.094046535         0.442040094
     0.341853949         0.094046535         0.642040094
     0.341853949         0.094046535         0.842040094
     0.341853949         0.427379868         0.042040094
     0.341853949         0.427379868         0.242040094
     0.341853949         0.427379868         0.442040094
     0.341853949         0.427379868         0.642040094
     0.341853949         0.427379868         0.842040094
     0.341853949         0.760713202         0.042040094
     0.341853949         0.760713202         0.242040094
     0.341853949         0.760713202         0.442040094
     0.341853949         0.760713202         0.642040094
     0.341853949         0.760713202         0.842040094
