TITL FeB2.vasp  -0.0008237276251500992  85.06009682967995  -90.2946688017309 0 0 12 (Pnma)  n - 1
REM
REM
CELL 1.54180    4.833127    4.785726    3.677476    90.0    90.0    90.0    
LATT -1
SFAC Fe  B  
Fe  1  0.520869647028538  0.7500000000000614  0.3750265430974007  1.0  
Fe  1  0.020869647028776115  0.7500000000000203  0.12497345690266358  1.0  
Fe  1  0.4791303529714622  0.2499999999999375  0.6249734569025996  1.0  
Fe  1  0.9791303529712241  0.2499999999999784  0.8750265430973367  1.0  
B  1  0.3382221026110768  0.0692983593574271  0.10888284939680976  1.0  
B  1  0.8382221026111759  0.4307016406424382  0.3911171506035822  1.0  
B  1  0.6617778973888908  0.5692983593575609  0.8911171506031732  1.0  
B  1  0.16177789738884005  0.9307016406425094  0.6088828493965505  1.0  
B  1  0.661777897388923  0.9307016406425715  0.8911171506031906  1.0  
B  1  0.16177789738882428  0.5692983593575606  0.6088828493964176  1.0  
B  1  0.33822210261110935  0.4307016406424379  0.10888284939682724  1.0  
B  1  0.8382221026111603  0.0692983593574894  0.39111715060345  1.0  
END
