Cr2
1.0
       14.8444957733         0.0000000000         0.0000000000
        0.0000000000        14.8444957733         0.0000000000
        0.0000000000         0.0000000000        14.8444957733
   Cr
  250
Direct
     0.000000000         0.000000000         0.000000000
     0.100000000         0.100000000         0.100000000
     0.000000000         0.000000000         0.200000000
     0.000000000         0.000000000         0.800000000
     0.200000000         0.000000000         0.000000000
     0.800000000         0.000000000         0.000000000
     0.000000000         0.200000000         0.000000000
     0.000000000         0.800000000         0.000000000
     0.100000000         0.100000000         0.300000000
     0.100000000         0.100000000         0.900000000
     0.300000000         0.100000000         0.100000000
     0.900000000         0.100000000         0.100000000
     0.100000000         0.300000000         0.100000000
     0.100000000         0.900000000         0.100000000
     0.000000000         0.000000000         0.400000000
     0.000000000         0.000000000         0.600000000
     0.400000000         0.000000000         0.000000000
     0.600000000         0.000000000         0.000000000
     0.000000000         0.400000000         0.000000000
     0.000000000         0.600000000         0.000000000
     0.100000000         0.100000000         0.500000000
     0.100000000         0.100000000         0.700000000
     0.500000000         0.100000000         0.100000000
     0.700000000         0.100000000         0.100000000
     0.100000000         0.500000000         0.100000000
     0.100000000         0.700000000         0.100000000
     0.000000000         0.200000000         0.200000000
     0.000000000         0.800000000         0.800000000
     0.000000000         0.800000000         0.200000000
     0.000000000         0.200000000         0.800000000
     0.200000000         0.000000000         0.200000000
     0.800000000         0.000000000         0.800000000
     0.200000000         0.000000000         0.800000000
     0.800000000         0.000000000         0.200000000
     0.200000000         0.200000000         0.000000000
     0.800000000         0.800000000         0.000000000
     0.800000000         0.200000000         0.000000000
     0.200000000         0.800000000         0.000000000
     0.100000000         0.300000000         0.300000000
     0.100000000         0.900000000         0.900000000
     0.100000000         0.900000000         0.300000000
     0.100000000         0.300000000         0.900000000
     0.300000000         0.100000000         0.300000000
     0.900000000         0.100000000         0.900000000
     0.300000000         0.100000000         0.900000000
     0.900000000         0.100000000         0.300000000
     0.300000000         0.300000000         0.100000000
     0.900000000         0.900000000         0.100000000
     0.900000000         0.300000000         0.100000000
     0.300000000         0.900000000         0.100000000
     0.000000000         0.200000000         0.400000000
     0.000000000         0.800000000         0.600000000
     0.000000000         0.800000000         0.400000000
     0.000000000         0.200000000         0.600000000
     0.400000000         0.000000000         0.200000000
     0.600000000         0.000000000         0.800000000
     0.400000000         0.000000000         0.800000000
     0.600000000         0.000000000         0.200000000
     0.200000000         0.400000000         0.000000000
     0.800000000         0.600000000         0.000000000
     0.800000000         0.400000000         0.000000000
     0.200000000         0.600000000         0.000000000
     0.200000000         0.000000000         0.600000000
     0.800000000         0.000000000         0.400000000
     0.800000000         0.000000000         0.600000000
     0.200000000         0.000000000         0.400000000
     0.000000000         0.400000000         0.800000000
     0.000000000         0.600000000         0.200000000
     0.000000000         0.400000000         0.200000000
     0.000000000         0.600000000         0.800000000
     0.400000000         0.200000000         0.000000000
     0.600000000         0.800000000         0.000000000
     0.400000000         0.800000000         0.000000000
     0.600000000         0.200000000         0.000000000
     0.100000000         0.300000000         0.500000000
     0.100000000         0.900000000         0.700000000
     0.100000000         0.900000000         0.500000000
     0.100000000         0.300000000         0.700000000
     0.500000000         0.100000000         0.300000000
     0.700000000         0.100000000         0.900000000
     0.500000000         0.100000000         0.900000000
     0.700000000         0.100000000         0.300000000
     0.300000000         0.500000000         0.100000000
     0.900000000         0.700000000         0.100000000
     0.900000000         0.500000000         0.100000000
     0.300000000         0.700000000         0.100000000
     0.300000000         0.100000000         0.700000000
     0.900000000         0.100000000         0.500000000
     0.900000000         0.100000000         0.700000000
     0.300000000         0.100000000         0.500000000
     0.100000000         0.500000000         0.900000000
     0.100000000         0.700000000         0.300000000
     0.100000000         0.500000000         0.300000000
     0.100000000         0.700000000         0.900000000
     0.500000000         0.300000000         0.100000000
     0.700000000         0.900000000         0.100000000
     0.500000000         0.900000000         0.100000000
     0.700000000         0.300000000         0.100000000
     0.000000000         0.400000000         0.400000000
     0.000000000         0.600000000         0.600000000
     0.000000000         0.600000000         0.400000000
     0.000000000         0.400000000         0.600000000
     0.400000000         0.000000000         0.400000000
     0.600000000         0.000000000         0.600000000
     0.400000000         0.000000000         0.600000000
     0.600000000         0.000000000         0.400000000
     0.400000000         0.400000000         0.000000000
     0.600000000         0.600000000         0.000000000
     0.600000000         0.400000000         0.000000000
     0.400000000         0.600000000         0.000000000
     0.100000000         0.500000000         0.500000000
     0.100000000         0.700000000         0.700000000
     0.100000000         0.700000000         0.500000000
     0.100000000         0.500000000         0.700000000
     0.500000000         0.100000000         0.500000000
     0.700000000         0.100000000         0.700000000
     0.500000000         0.100000000         0.700000000
     0.700000000         0.100000000         0.500000000
     0.500000000         0.500000000         0.100000000
     0.700000000         0.700000000         0.100000000
     0.700000000         0.500000000         0.100000000
     0.500000000         0.700000000         0.100000000
     0.200000000         0.200000000         0.200000000
     0.800000000         0.800000000         0.800000000
     0.800000000         0.800000000         0.200000000
     0.200000000         0.200000000         0.800000000
     0.800000000         0.200000000         0.800000000
     0.200000000         0.800000000         0.200000000
     0.200000000         0.800000000         0.800000000
     0.800000000         0.200000000         0.200000000
     0.300000000         0.300000000         0.300000000
     0.900000000         0.900000000         0.900000000
     0.900000000         0.900000000         0.300000000
     0.300000000         0.300000000         0.900000000
     0.900000000         0.300000000         0.900000000
     0.300000000         0.900000000         0.300000000
     0.300000000         0.900000000         0.900000000
     0.900000000         0.300000000         0.300000000
     0.200000000         0.200000000         0.400000000
     0.800000000         0.800000000         0.600000000
     0.800000000         0.800000000         0.400000000
     0.200000000         0.200000000         0.600000000
     0.800000000         0.200000000         0.600000000
     0.200000000         0.800000000         0.400000000
     0.200000000         0.800000000         0.600000000
     0.800000000         0.200000000         0.400000000
     0.400000000         0.200000000         0.200000000
     0.600000000         0.800000000         0.800000000
     0.400000000         0.800000000         0.800000000
     0.600000000         0.200000000         0.200000000
     0.600000000         0.800000000         0.200000000
     0.400000000         0.200000000         0.800000000
     0.600000000         0.200000000         0.800000000
     0.400000000         0.800000000         0.200000000
     0.200000000         0.400000000         0.200000000
     0.800000000         0.600000000         0.800000000
     0.800000000         0.400000000         0.800000000
     0.200000000         0.600000000         0.200000000
     0.200000000         0.600000000         0.800000000
     0.800000000         0.400000000         0.200000000
     0.800000000         0.600000000         0.200000000
     0.200000000         0.400000000         0.800000000
     0.300000000         0.300000000         0.500000000
     0.900000000         0.900000000         0.700000000
     0.900000000         0.900000000         0.500000000
     0.300000000         0.300000000         0.700000000
     0.900000000         0.300000000         0.700000000
     0.300000000         0.900000000         0.500000000
     0.300000000         0.900000000         0.700000000
     0.900000000         0.300000000         0.500000000
     0.500000000         0.300000000         0.300000000
     0.700000000         0.900000000         0.900000000
     0.500000000         0.900000000         0.900000000
     0.700000000         0.300000000         0.300000000
     0.700000000         0.900000000         0.300000000
     0.500000000         0.300000000         0.900000000
     0.700000000         0.300000000         0.900000000
     0.500000000         0.900000000         0.300000000
     0.300000000         0.500000000         0.300000000
     0.900000000         0.700000000         0.900000000
     0.900000000         0.500000000         0.900000000
     0.300000000         0.700000000         0.300000000
     0.300000000         0.700000000         0.900000000
     0.900000000         0.500000000         0.300000000
     0.900000000         0.700000000         0.300000000
     0.300000000         0.500000000         0.900000000
     0.200000000         0.400000000         0.400000000
     0.800000000         0.600000000         0.600000000
     0.800000000         0.600000000         0.400000000
     0.200000000         0.400000000         0.600000000
     0.800000000         0.400000000         0.600000000
     0.200000000         0.600000000         0.400000000
     0.200000000         0.600000000         0.600000000
     0.800000000         0.400000000         0.400000000
     0.400000000         0.200000000         0.400000000
     0.600000000         0.800000000         0.600000000
     0.400000000         0.800000000         0.600000000
     0.600000000         0.200000000         0.400000000
     0.600000000         0.800000000         0.400000000
     0.400000000         0.200000000         0.600000000
     0.600000000         0.200000000         0.600000000
     0.400000000         0.800000000         0.400000000
     0.400000000         0.400000000         0.200000000
     0.600000000         0.600000000         0.800000000
     0.600000000         0.400000000         0.800000000
     0.400000000         0.600000000         0.200000000
     0.400000000         0.600000000         0.800000000
     0.600000000         0.400000000         0.200000000
     0.600000000         0.600000000         0.200000000
     0.400000000         0.400000000         0.800000000
     0.300000000         0.500000000         0.500000000
     0.900000000         0.700000000         0.700000000
     0.900000000         0.700000000         0.500000000
     0.300000000         0.500000000         0.700000000
     0.900000000         0.500000000         0.700000000
     0.300000000         0.700000000         0.500000000
     0.300000000         0.700000000         0.700000000
     0.900000000         0.500000000         0.500000000
     0.500000000         0.300000000         0.500000000
     0.700000000         0.900000000         0.700000000
     0.500000000         0.900000000         0.700000000
     0.700000000         0.300000000         0.500000000
     0.700000000         0.900000000         0.500000000
     0.500000000         0.300000000         0.700000000
     0.700000000         0.300000000         0.700000000
     0.500000000         0.900000000         0.500000000
     0.500000000         0.500000000         0.300000000
     0.700000000         0.700000000         0.900000000
     0.700000000         0.500000000         0.900000000
     0.500000000         0.700000000         0.300000000
     0.500000000         0.700000000         0.900000000
     0.700000000         0.500000000         0.300000000
     0.700000000         0.700000000         0.300000000
     0.500000000         0.500000000         0.900000000
     0.400000000         0.400000000         0.400000000
     0.600000000         0.600000000         0.600000000
     0.600000000         0.600000000         0.400000000
     0.400000000         0.400000000         0.600000000
     0.600000000         0.400000000         0.600000000
     0.400000000         0.600000000         0.400000000
     0.400000000         0.600000000         0.600000000
     0.600000000         0.400000000         0.400000000
     0.500000000         0.500000000         0.500000000
     0.700000000         0.700000000         0.700000000
     0.700000000         0.700000000         0.500000000
     0.500000000         0.500000000         0.700000000
     0.700000000         0.500000000         0.700000000
     0.500000000         0.700000000         0.500000000
     0.500000000         0.700000000         0.700000000
     0.700000000         0.500000000         0.500000000
