"B10 Cr10"
1.0
       17.0402679443         0.0000000000         0.0000000000
        0.0000000000        14.0193490982         0.0000000000
        0.0000000000         0.0000000000        11.4812183380
    B   Cr
  160  160
Direct
     0.364044747         0.069673525         0.174974871
     0.364044747         0.069673525         0.424974871
     0.364044747         0.069673525         0.674974871
     0.364044747         0.069673525         0.924974871
     0.364044747         0.569673525         0.174974871
     0.364044747         0.569673525         0.424974871
     0.364044747         0.569673525         0.674974871
     0.364044747         0.569673525         0.924974871
     0.864044747         0.069673525         0.174974871
     0.864044747         0.069673525         0.424974871
     0.864044747         0.069673525         0.674974871
     0.864044747         0.069673525         0.924974871
     0.864044747         0.569673525         0.174974871
     0.864044747         0.569673525         0.424974871
     0.864044747         0.569673525         0.674974871
     0.864044747         0.569673525         0.924974871
     0.030895941         0.016604656         0.049285297
     0.030895941         0.016604656         0.299285297
     0.030895941         0.016604656         0.549285297
     0.030895941         0.016604656         0.799285297
     0.030895941         0.516604656         0.049285297
     0.030895941         0.516604656         0.299285297
     0.030895941         0.516604656         0.549285297
     0.030895941         0.516604656         0.799285297
     0.530895941         0.016604656         0.049285297
     0.530895941         0.016604656         0.299285297
     0.530895941         0.016604656         0.549285297
     0.530895941         0.016604656         0.799285297
     0.530895941         0.516604656         0.049285297
     0.530895941         0.516604656         0.299285297
     0.530895941         0.516604656         0.549285297
     0.530895941         0.516604656         0.799285297
     0.217423202         0.176914258         0.175180645
     0.217423202         0.176914258         0.425180645
     0.217423202         0.176914258         0.675180645
     0.217423202         0.176914258         0.925180645
     0.217423202         0.676914258         0.175180645
     0.217423202         0.676914258         0.425180645
     0.217423202         0.676914258         0.675180645
     0.217423202         0.676914258         0.925180645
     0.717423202         0.176914258         0.175180645
     0.717423202         0.176914258         0.425180645
     0.717423202         0.176914258         0.675180645
     0.717423202         0.176914258         0.925180645
     0.717423202         0.676914258         0.175180645
     0.717423202         0.676914258         0.425180645
     0.717423202         0.676914258         0.675180645
     0.717423202         0.676914258         0.925180645
     0.094029124         0.329188581         0.050166721
     0.094029124         0.329188581         0.300166721
     0.094029124         0.329188581         0.550166721
     0.094029124         0.329188581         0.800166721
     0.094029124         0.829188581         0.050166721
     0.094029124         0.829188581         0.300166721
     0.094029124         0.829188581         0.550166721
     0.094029124         0.829188581         0.800166721
     0.594029124         0.329188581         0.050166721
     0.594029124         0.329188581         0.300166721
     0.594029124         0.329188581         0.550166721
     0.594029124         0.329188581         0.800166721
     0.594029124         0.829188581         0.050166721
     0.594029124         0.829188581         0.300166721
     0.594029124         0.829188581         0.550166721
     0.594029124         0.829188581         0.800166721
     0.154905069         0.130972110         0.050358720
     0.154905069         0.130972110         0.300358720
     0.154905069         0.130972110         0.550358720
     0.154905069         0.130972110         0.800358720
     0.154905069         0.630972110         0.050358720
     0.154905069         0.630972110         0.300358720
     0.154905069         0.630972110         0.550358720
     0.154905069         0.630972110         0.800358720
     0.654905069         0.130972110         0.050358720
     0.654905069         0.130972110         0.300358720
     0.654905069         0.130972110         0.550358720
     0.654905069         0.130972110         0.800358720
     0.654905069         0.630972110         0.050358720
     0.654905069         0.630972110         0.300358720
     0.654905069         0.630972110         0.550358720
     0.654905069         0.630972110         0.800358720
     0.396472434         0.131822391         0.049606647
     0.396472434         0.131822391         0.299606647
     0.396472434         0.131822391         0.549606647
     0.396472434         0.131822391         0.799606647
     0.396472434         0.631822391         0.049606647
     0.396472434         0.631822391         0.299606647
     0.396472434         0.631822391         0.549606647
     0.396472434         0.631822391         0.799606647
     0.896472434         0.131822391         0.049606647
     0.896472434         0.131822391         0.299606647
     0.896472434         0.131822391         0.549606647
     0.896472434         0.131822391         0.799606647
     0.896472434         0.631822391         0.049606647
     0.896472434         0.631822391         0.299606647
     0.896472434         0.631822391         0.549606647
     0.896472434         0.631822391         0.799606647
     0.343894378         0.339561717         0.050077927
     0.343894378         0.339561717         0.300077927
     0.343894378         0.339561717         0.550077927
     0.343894378         0.339561717         0.800077927
     0.343894378         0.839561717         0.050077927
     0.343894378         0.839561717         0.300077927
     0.343894378         0.839561717         0.550077927
     0.343894378         0.839561717         0.800077927
     0.843894378         0.339561717         0.050077927
     0.843894378         0.339561717         0.300077927
     0.843894378         0.339561717         0.550077927
     0.843894378         0.339561717         0.800077927
     0.843894378         0.839561717         0.050077927
     0.843894378         0.839561717         0.300077927
     0.843894378         0.839561717         0.550077927
     0.843894378         0.839561717         0.800077927
     0.177757773         0.066744889         0.175306194
     0.177757773         0.066744889         0.425306194
     0.177757773         0.066744889         0.675306194
     0.177757773         0.066744889         0.925306194
     0.177757773         0.566744889         0.175306194
     0.177757773         0.566744889         0.425306194
     0.177757773         0.566744889         0.675306194
     0.177757773         0.566744889         0.925306194
     0.677757773         0.066744889         0.175306194
     0.677757773         0.066744889         0.425306194
     0.677757773         0.066744889         0.675306194
     0.677757773         0.066744889         0.925306194
     0.677757773         0.566744889         0.175306194
     0.677757773         0.566744889         0.425306194
     0.677757773         0.566744889         0.675306194
     0.677757773         0.566744889         0.925306194
     0.402647123         0.360316025         0.174915065
     0.402647123         0.360316025         0.424915065
     0.402647123         0.360316025         0.674915065
     0.402647123         0.360316025         0.924915065
     0.402647123         0.860316025         0.174915065
     0.402647123         0.860316025         0.424915065
     0.402647123         0.860316025         0.674915065
     0.402647123         0.860316025         0.924915065
     0.902647123         0.360316025         0.174915065
     0.902647123         0.360316025         0.424915065
     0.902647123         0.360316025         0.674915065
     0.902647123         0.360316025         0.924915065
     0.902647123         0.860316025         0.174915065
     0.902647123         0.860316025         0.424915065
     0.902647123         0.860316025         0.674915065
     0.902647123         0.860316025         0.924915065
     0.149077560         0.359056358         0.175158989
     0.149077560         0.359056358         0.425158989
     0.149077560         0.359056358         0.675158989
     0.149077560         0.359056358         0.925158989
     0.149077560         0.859056358         0.175158989
     0.149077560         0.859056358         0.425158989
     0.149077560         0.859056358         0.675158989
     0.149077560         0.859056358         0.925158989
     0.649077560         0.359056358         0.175158989
     0.649077560         0.359056358         0.425158989
     0.649077560         0.359056358         0.675158989
     0.649077560         0.359056358         0.925158989
     0.649077560         0.859056358         0.175158989
     0.649077560         0.859056358         0.425158989
     0.649077560         0.859056358         0.675158989
     0.649077560         0.859056358         0.925158989
     0.485740902         0.109902656         0.174266139
     0.485740902         0.109902656         0.424266139
     0.485740902         0.109902656         0.674266139
     0.485740902         0.109902656         0.924266139
     0.485740902         0.609902656         0.174266139
     0.485740902         0.609902656         0.424266139
     0.485740902         0.609902656         0.674266139
     0.485740902         0.609902656         0.924266139
     0.985740902         0.109902656         0.174266139
     0.985740902         0.109902656         0.424266139
     0.985740902         0.109902656         0.674266139
     0.985740902         0.109902656         0.924266139
     0.985740902         0.609902656         0.174266139
     0.985740902         0.609902656         0.424266139
     0.985740902         0.609902656         0.674266139
     0.985740902         0.609902656         0.924266139
     0.027908226         0.411137810         0.174924086
     0.027908226         0.411137810         0.424924086
     0.027908226         0.411137810         0.674924086
     0.027908226         0.411137810         0.924924086
     0.027908226         0.911137810         0.174924086
     0.027908226         0.911137810         0.424924086
     0.027908226         0.911137810         0.674924086
     0.027908226         0.911137810         0.924924086
     0.527908226         0.411137810         0.174924086
     0.527908226         0.411137810         0.424924086
     0.527908226         0.411137810         0.674924086
     0.527908226         0.411137810         0.924924086
     0.527908226         0.911137810         0.174924086
     0.527908226         0.911137810         0.424924086
     0.527908226         0.911137810         0.674924086
     0.527908226         0.911137810         0.924924086
     0.152155208         0.467439460         0.050218402
     0.152155208         0.467439460         0.300218402
     0.152155208         0.467439460         0.550218402
     0.152155208         0.467439460         0.800218402
     0.152155208         0.967439460         0.050218402
     0.152155208         0.967439460         0.300218402
     0.152155208         0.967439460         0.550218402
     0.152155208         0.967439460         0.800218402
     0.652155208         0.467439460         0.050218402
     0.652155208         0.467439460         0.300218402
     0.652155208         0.467439460         0.550218402
     0.652155208         0.467439460         0.800218402
     0.652155208         0.967439460         0.050218402
     0.652155208         0.967439460         0.300218402
     0.652155208         0.967439460         0.550218402
     0.652155208         0.967439460         0.800218402
     0.219625726         0.285128826         0.050339953
     0.219625726         0.285128826         0.300339953
     0.219625726         0.285128826         0.550339953
     0.219625726         0.285128826         0.800339953
     0.219625726         0.785128826         0.050339953
     0.219625726         0.785128826         0.300339953
     0.219625726         0.785128826         0.550339953
     0.219625726         0.785128826         0.800339953
     0.719625726         0.285128826         0.050339953
     0.719625726         0.285128826         0.300339953
     0.719625726         0.285128826         0.550339953
     0.719625726         0.285128826         0.800339953
     0.719625726         0.785128826         0.050339953
     0.719625726         0.785128826         0.300339953
     0.719625726         0.785128826         0.550339953
     0.719625726         0.785128826         0.800339953
     0.279652296         0.429537659         0.175155947
     0.279652296         0.429537659         0.425155947
     0.279652296         0.429537659         0.675155947
     0.279652296         0.429537659         0.925155947
     0.279652296         0.929537659         0.175155947
     0.279652296         0.929537659         0.425155947
     0.279652296         0.929537659         0.675155947
     0.279652296         0.929537659         0.925155947
     0.779652296         0.429537659         0.175155947
     0.779652296         0.429537659         0.425155947
     0.779652296         0.429537659         0.675155947
     0.779652296         0.429537659         0.925155947
     0.779652296         0.929537659         0.175155947
     0.779652296         0.929537659         0.425155947
     0.779652296         0.929537659         0.675155947
     0.779652296         0.929537659         0.925155947
     0.465891619         0.273883380         0.050075946
     0.465891619         0.273883380         0.300075946
     0.465891619         0.273883380         0.550075946
     0.465891619         0.273883380         0.800075946
     0.465891619         0.773883380         0.050075946
     0.465891619         0.773883380         0.300075946
     0.465891619         0.773883380         0.550075946
     0.465891619         0.773883380         0.800075946
     0.965891619         0.273883380         0.050075946
     0.965891619         0.273883380         0.300075946
     0.965891619         0.273883380         0.550075946
     0.965891619         0.273883380         0.800075946
     0.965891619         0.773883380         0.050075946
     0.965891619         0.773883380         0.300075946
     0.965891619         0.773883380         0.550075946
     0.965891619         0.773883380         0.800075946
     0.092302547         0.218973505         0.175430081
     0.092302547         0.218973505         0.425430081
     0.092302547         0.218973505         0.675430081
     0.092302547         0.218973505         0.925430081
     0.092302547         0.718973505         0.175430081
     0.092302547         0.718973505         0.425430081
     0.092302547         0.718973505         0.675430081
     0.092302547         0.718973505         0.925430081
     0.592302547         0.218973505         0.175430081
     0.592302547         0.218973505         0.425430081
     0.592302547         0.218973505         0.675430081
     0.592302547         0.218973505         0.925430081
     0.592302547         0.718973505         0.175430081
     0.592302547         0.718973505         0.425430081
     0.592302547         0.718973505         0.675430081
     0.592302547         0.718973505         0.925430081
     0.341096022         0.224766062         0.174796301
     0.341096022         0.224766062         0.424796301
     0.341096022         0.224766062         0.674796301
     0.341096022         0.224766062         0.924796301
     0.341096022         0.724766062         0.174796301
     0.341096022         0.724766062         0.424796301
     0.341096022         0.724766062         0.674796301
     0.341096022         0.724766062         0.924796301
     0.841096022         0.224766062         0.174796301
     0.841096022         0.224766062         0.424796301
     0.841096022         0.224766062         0.674796301
     0.841096022         0.224766062         0.924796301
     0.841096022         0.724766062         0.174796301
     0.841096022         0.724766062         0.424796301
     0.841096022         0.724766062         0.674796301
     0.841096022         0.724766062         0.924796301
     0.409164399         0.472679526         0.049856482
     0.409164399         0.472679526         0.299856482
     0.409164399         0.472679526         0.549856482
     0.409164399         0.472679526         0.799856482
     0.409164399         0.972679526         0.049856482
     0.409164399         0.972679526         0.299856482
     0.409164399         0.972679526         0.549856482
     0.409164399         0.972679526         0.799856482
     0.909164399         0.472679526         0.049856482
     0.909164399         0.472679526         0.299856482
     0.909164399         0.472679526         0.549856482
     0.909164399         0.472679526         0.799856482
     0.909164399         0.972679526         0.049856482
     0.909164399         0.972679526         0.299856482
     0.909164399         0.972679526         0.549856482
     0.909164399         0.972679526         0.799856482
     0.275410704         0.086246605         0.050090587
     0.275410704         0.086246605         0.300090587
     0.275410704         0.086246605         0.550090587
     0.275410704         0.086246605         0.800090587
     0.275410704         0.586246605         0.050090587
     0.275410704         0.586246605         0.300090587
     0.275410704         0.586246605         0.550090587
     0.275410704         0.586246605         0.800090587
     0.775410704         0.086246605         0.050090587
     0.775410704         0.086246605         0.300090587
     0.775410704         0.086246605         0.550090587
     0.775410704         0.086246605         0.800090587
     0.775410704         0.586246605         0.050090587
     0.775410704         0.586246605         0.300090587
     0.775410704         0.586246605         0.550090587
     0.775410704         0.586246605         0.800090587
