TITL Fe2B.vasp  10.015416462870943  50.501034385830174  -48.36398239040274 0 0 6 (I4/mcm)  n - 1
REM
REM
CELL 1.54180    4.060788    4.060788    4.060788    105.003962    105.003962    118.83104    
LATT -1
SFAC Fe  B  
Fe  1  0.16460518282821798  0.6646051828520846  0.8292103656803015  1.0  
Fe  1  0.3353948171717822  0.16460518285208467  0.500000000023866  1.0  
Fe  1  0.8353948171717824  0.3353948171479163  0.17078963431969804  1.0  
Fe  1  0.6646051828282181  0.8353948171479164  0.4999999999761334  1.0  
B  1  0.2500000000000003  0.2500000000000003  0.9999999999999999  1.0  
B  1  0.7500000000000008  0.7500000000000007  0.9999999999999997  1.0  
END
