"B15 Cr5"
1.0
       16.4724349976         0.0000000000         0.0000000000
        0.0000000000        16.1089038849         0.0000000000
        0.0000000000         0.0000000000        14.3180437088
    B   Cr
  360  120
Direct
     0.222528860         0.013411638         0.232511201
     0.222528860         0.013411638         0.732511201
     0.222528860         0.263411638         0.232511201
     0.222528860         0.263411638         0.732511201
     0.222528860         0.513411638         0.232511201
     0.222528860         0.513411638         0.732511201
     0.222528860         0.763411638         0.232511201
     0.222528860         0.763411638         0.732511201
     0.555862193         0.013411638         0.232511201
     0.555862193         0.013411638         0.732511201
     0.555862193         0.263411638         0.232511201
     0.555862193         0.263411638         0.732511201
     0.555862193         0.513411638         0.232511201
     0.555862193         0.513411638         0.732511201
     0.555862193         0.763411638         0.232511201
     0.555862193         0.763411638         0.732511201
     0.889195527         0.013411638         0.232511201
     0.889195527         0.013411638         0.732511201
     0.889195527         0.263411638         0.232511201
     0.889195527         0.263411638         0.732511201
     0.889195527         0.513411638         0.232511201
     0.889195527         0.513411638         0.732511201
     0.889195527         0.763411638         0.232511201
     0.889195527         0.763411638         0.732511201
     0.270177130         0.134523530         0.377287529
     0.270177130         0.134523530         0.877287529
     0.270177130         0.384523530         0.377287529
     0.270177130         0.384523530         0.877287529
     0.270177130         0.634523530         0.377287529
     0.270177130         0.634523530         0.877287529
     0.270177130         0.884523530         0.377287529
     0.270177130         0.884523530         0.877287529
     0.603510464         0.134523530         0.377287529
     0.603510464         0.134523530         0.877287529
     0.603510464         0.384523530         0.377287529
     0.603510464         0.384523530         0.877287529
     0.603510464         0.634523530         0.377287529
     0.603510464         0.634523530         0.877287529
     0.603510464         0.884523530         0.377287529
     0.603510464         0.884523530         0.877287529
     0.936843797         0.134523530         0.377287529
     0.936843797         0.134523530         0.877287529
     0.936843797         0.384523530         0.377287529
     0.936843797         0.384523530         0.877287529
     0.936843797         0.634523530         0.377287529
     0.936843797         0.634523530         0.877287529
     0.936843797         0.884523530         0.377287529
     0.936843797         0.884523530         0.877287529
     0.251202683         0.075535707         0.477128600
     0.251202683         0.075535707         0.977128600
     0.251202683         0.325535707         0.477128600
     0.251202683         0.325535707         0.977128600
     0.251202683         0.575535707         0.477128600
     0.251202683         0.575535707         0.977128600
     0.251202683         0.825535707         0.477128600
     0.251202683         0.825535707         0.977128600
     0.584536016         0.075535707         0.477128600
     0.584536016         0.075535707         0.977128600
     0.584536016         0.325535707         0.477128600
     0.584536016         0.325535707         0.977128600
     0.584536016         0.575535707         0.477128600
     0.584536016         0.575535707         0.977128600
     0.584536016         0.825535707         0.477128600
     0.584536016         0.825535707         0.977128600
     0.917869349         0.075535707         0.477128600
     0.917869349         0.075535707         0.977128600
     0.917869349         0.325535707         0.477128600
     0.917869349         0.325535707         0.977128600
     0.917869349         0.575535707         0.477128600
     0.917869349         0.575535707         0.977128600
     0.917869349         0.825535707         0.477128600
     0.917869349         0.825535707         0.977128600
     0.178900104         0.244037484         0.122477177
     0.178900104         0.244037484         0.622477177
     0.178900104         0.494037484         0.122477177
     0.178900104         0.494037484         0.622477177
     0.178900104         0.744037484         0.122477177
     0.178900104         0.744037484         0.622477177
     0.178900104         0.994037484         0.122477177
     0.178900104         0.994037484         0.622477177
     0.512233437         0.244037484         0.122477177
     0.512233437         0.244037484         0.622477177
     0.512233437         0.494037484         0.122477177
     0.512233437         0.494037484         0.622477177
     0.512233437         0.744037484         0.122477177
     0.512233437         0.744037484         0.622477177
     0.512233437         0.994037484         0.122477177
     0.512233437         0.994037484         0.622477177
     0.845566770         0.244037484         0.122477177
     0.845566770         0.244037484         0.622477177
     0.845566770         0.494037484         0.122477177
     0.845566770         0.494037484         0.622477177
     0.845566770         0.744037484         0.122477177
     0.845566770         0.744037484         0.622477177
     0.845566770         0.994037484         0.122477177
     0.845566770         0.994037484         0.622477177
     0.155978356         0.072431999         0.031530887
     0.155978356         0.072431999         0.531530887
     0.155978356         0.322431999         0.031530887
     0.155978356         0.322431999         0.531530887
     0.155978356         0.572431999         0.031530887
     0.155978356         0.572431999         0.531530887
     0.155978356         0.822431999         0.031530887
     0.155978356         0.822431999         0.531530887
     0.489311690         0.072431999         0.031530887
     0.489311690         0.072431999         0.531530887
     0.489311690         0.322431999         0.031530887
     0.489311690         0.322431999         0.531530887
     0.489311690         0.572431999         0.031530887
     0.489311690         0.572431999         0.531530887
     0.489311690         0.822431999         0.031530887
     0.489311690         0.822431999         0.531530887
     0.822645023         0.072431999         0.031530887
     0.822645023         0.072431999         0.531530887
     0.822645023         0.322431999         0.031530887
     0.822645023         0.322431999         0.531530887
     0.822645023         0.572431999         0.031530887
     0.822645023         0.572431999         0.531530887
     0.822645023         0.822431999         0.031530887
     0.822645023         0.822431999         0.531530887
     0.051200395         0.074782432         0.240085376
     0.051200395         0.074782432         0.740085376
     0.051200395         0.324782432         0.240085376
     0.051200395         0.324782432         0.740085376
     0.051200395         0.574782432         0.240085376
     0.051200395         0.574782432         0.740085376
     0.051200395         0.824782432         0.240085376
     0.051200395         0.824782432         0.740085376
     0.384533729         0.074782432         0.240085376
     0.384533729         0.074782432         0.740085376
     0.384533729         0.324782432         0.240085376
     0.384533729         0.324782432         0.740085376
     0.384533729         0.574782432         0.240085376
     0.384533729         0.574782432         0.740085376
     0.384533729         0.824782432         0.240085376
     0.384533729         0.824782432         0.740085376
     0.717867062         0.074782432         0.240085376
     0.717867062         0.074782432         0.740085376
     0.717867062         0.324782432         0.240085376
     0.717867062         0.324782432         0.740085376
     0.717867062         0.574782432         0.240085376
     0.717867062         0.574782432         0.740085376
     0.717867062         0.824782432         0.240085376
     0.717867062         0.824782432         0.740085376
     0.083208139         0.012862489         0.471044162
     0.083208139         0.012862489         0.971044162
     0.083208139         0.262862489         0.471044162
     0.083208139         0.262862489         0.971044162
     0.083208139         0.512862489         0.471044162
     0.083208139         0.512862489         0.971044162
     0.083208139         0.762862489         0.471044162
     0.083208139         0.762862489         0.971044162
     0.416541473         0.012862489         0.471044162
     0.416541473         0.012862489         0.971044162
     0.416541473         0.262862489         0.471044162
     0.416541473         0.262862489         0.971044162
     0.416541473         0.512862489         0.471044162
     0.416541473         0.512862489         0.971044162
     0.416541473         0.762862489         0.471044162
     0.416541473         0.762862489         0.971044162
     0.749874806         0.012862489         0.471044162
     0.749874806         0.012862489         0.971044162
     0.749874806         0.262862489         0.471044162
     0.749874806         0.262862489         0.971044162
     0.749874806         0.512862489         0.471044162
     0.749874806         0.512862489         0.971044162
     0.749874806         0.762862489         0.471044162
     0.749874806         0.762862489         0.971044162
     0.321194146         0.010141311         0.027501060
     0.321194146         0.010141311         0.527501060
     0.321194146         0.260141311         0.027501060
     0.321194146         0.260141311         0.527501060
     0.321194146         0.510141311         0.027501060
     0.321194146         0.510141311         0.527501060
     0.321194146         0.760141311         0.027501060
     0.321194146         0.760141311         0.527501060
     0.654527479         0.010141311         0.027501060
     0.654527479         0.010141311         0.527501060
     0.654527479         0.260141311         0.027501060
     0.654527479         0.260141311         0.527501060
     0.654527479         0.510141311         0.027501060
     0.654527479         0.510141311         0.527501060
     0.654527479         0.760141311         0.027501060
     0.654527479         0.760141311         0.527501060
     0.987860812         0.010141311         0.027501060
     0.987860812         0.010141311         0.527501060
     0.987860812         0.260141311         0.027501060
     0.987860812         0.260141311         0.527501060
     0.987860812         0.510141311         0.027501060
     0.987860812         0.510141311         0.527501060
     0.987860812         0.760141311         0.027501060
     0.987860812         0.760141311         0.527501060
     0.106096576         0.199417528         0.378621027
     0.106096576         0.199417528         0.878621027
     0.106096576         0.449417528         0.378621027
     0.106096576         0.449417528         0.878621027
     0.106096576         0.699417528         0.378621027
     0.106096576         0.699417528         0.878621027
     0.106096576         0.949417528         0.378621027
     0.106096576         0.949417528         0.878621027
     0.439429909         0.199417528         0.378621027
     0.439429909         0.199417528         0.878621027
     0.439429909         0.449417528         0.378621027
     0.439429909         0.449417528         0.878621027
     0.439429909         0.699417528         0.378621027
     0.439429909         0.699417528         0.878621027
     0.439429909         0.949417528         0.378621027
     0.439429909         0.949417528         0.878621027
     0.772763243         0.199417528         0.378621027
     0.772763243         0.199417528         0.878621027
     0.772763243         0.449417528         0.378621027
     0.772763243         0.449417528         0.878621027
     0.772763243         0.699417528         0.378621027
     0.772763243         0.699417528         0.878621027
     0.772763243         0.949417528         0.378621027
     0.772763243         0.949417528         0.878621027
     0.125131199         0.152308444         0.100894102
     0.125131199         0.152308444         0.600894102
     0.125131199         0.402308444         0.100894102
     0.125131199         0.402308444         0.600894102
     0.125131199         0.652308444         0.100894102
     0.125131199         0.652308444         0.600894102
     0.125131199         0.902308444         0.100894102
     0.125131199         0.902308444         0.600894102
     0.458464533         0.152308444         0.100894102
     0.458464533         0.152308444         0.600894102
     0.458464533         0.402308444         0.100894102
     0.458464533         0.402308444         0.600894102
     0.458464533         0.652308444         0.100894102
     0.458464533         0.652308444         0.600894102
     0.458464533         0.902308444         0.100894102
     0.458464533         0.902308444         0.600894102
     0.791797866         0.152308444         0.100894102
     0.791797866         0.152308444         0.600894102
     0.791797866         0.402308444         0.100894102
     0.791797866         0.402308444         0.600894102
     0.791797866         0.652308444         0.100894102
     0.791797866         0.652308444         0.600894102
     0.791797866         0.902308444         0.100894102
     0.791797866         0.902308444         0.600894102
     0.318668390         0.007604558         0.186269849
     0.318668390         0.007604558         0.686269849
     0.318668390         0.257604558         0.186269849
     0.318668390         0.257604558         0.686269849
     0.318668390         0.507604558         0.186269849
     0.318668390         0.507604558         0.686269849
     0.318668390         0.757604558         0.186269849
     0.318668390         0.757604558         0.686269849
     0.652001724         0.007604558         0.186269849
     0.652001724         0.007604558         0.686269849
     0.652001724         0.257604558         0.186269849
     0.652001724         0.257604558         0.686269849
     0.652001724         0.507604558         0.186269849
     0.652001724         0.507604558         0.686269849
     0.652001724         0.757604558         0.186269849
     0.652001724         0.757604558         0.686269849
     0.985335057         0.007604558         0.186269849
     0.985335057         0.007604558         0.686269849
     0.985335057         0.257604558         0.186269849
     0.985335057         0.257604558         0.686269849
     0.985335057         0.507604558         0.186269849
     0.985335057         0.507604558         0.686269849
     0.985335057         0.757604558         0.186269849
     0.985335057         0.757604558         0.686269849
     0.023669794         0.189439597         0.110558560
     0.023669794         0.189439597         0.610558560
     0.023669794         0.439439597         0.110558560
     0.023669794         0.439439597         0.610558560
     0.023669794         0.689439597         0.110558560
     0.023669794         0.689439597         0.610558560
     0.023669794         0.939439597         0.110558560
     0.023669794         0.939439597         0.610558560
     0.357003127         0.189439597         0.110558560
     0.357003127         0.189439597         0.610558560
     0.357003127         0.439439597         0.110558560
     0.357003127         0.439439597         0.610558560
     0.357003127         0.689439597         0.110558560
     0.357003127         0.689439597         0.610558560
     0.357003127         0.939439597         0.110558560
     0.357003127         0.939439597         0.610558560
     0.690336461         0.189439597         0.110558560
     0.690336461         0.189439597         0.610558560
     0.690336461         0.439439597         0.110558560
     0.690336461         0.439439597         0.610558560
     0.690336461         0.689439597         0.110558560
     0.690336461         0.689439597         0.610558560
     0.690336461         0.939439597         0.110558560
     0.690336461         0.939439597         0.610558560
     0.146528093         0.076130949         0.190594798
     0.146528093         0.076130949         0.690594798
     0.146528093         0.326130949         0.190594798
     0.146528093         0.326130949         0.690594798
     0.146528093         0.576130949         0.190594798
     0.146528093         0.576130949         0.690594798
     0.146528093         0.826130949         0.190594798
     0.146528093         0.826130949         0.690594798
     0.479861426         0.076130949         0.190594798
     0.479861426         0.076130949         0.690594798
     0.479861426         0.326130949         0.190594798
     0.479861426         0.326130949         0.690594798
     0.479861426         0.576130949         0.190594798
     0.479861426         0.576130949         0.690594798
     0.479861426         0.826130949         0.190594798
     0.479861426         0.826130949         0.690594798
     0.813194760         0.076130949         0.190594798
     0.813194760         0.076130949         0.690594798
     0.813194760         0.326130949         0.190594798
     0.813194760         0.326130949         0.690594798
     0.813194760         0.576130949         0.190594798
     0.813194760         0.576130949         0.690594798
     0.813194760         0.826130949         0.190594798
     0.813194760         0.826130949         0.690594798
     0.201986309         0.199390360         0.327312088
     0.201986309         0.199390360         0.827312088
     0.201986309         0.449390360         0.327312088
     0.201986309         0.449390360         0.827312088
     0.201986309         0.699390360         0.327312088
     0.201986309         0.699390360         0.827312088
     0.201986309         0.949390360         0.327312088
     0.201986309         0.949390360         0.827312088
     0.535319643         0.199390360         0.327312088
     0.535319643         0.199390360         0.827312088
     0.535319643         0.449390360         0.327312088
     0.535319643         0.449390360         0.827312088
     0.535319643         0.699390360         0.327312088
     0.535319643         0.699390360         0.827312088
     0.535319643         0.949390360         0.327312088
     0.535319643         0.949390360         0.827312088
     0.868652976         0.199390360         0.327312088
     0.868652976         0.199390360         0.827312088
     0.868652976         0.449390360         0.327312088
     0.868652976         0.449390360         0.827312088
     0.868652976         0.699390360         0.327312088
     0.868652976         0.699390360         0.827312088
     0.868652976         0.949390360         0.327312088
     0.868652976         0.949390360         0.827312088
     0.031310730         0.136333244         0.330818605
     0.031310730         0.136333244         0.830818605
     0.031310730         0.386333244         0.330818605
     0.031310730         0.386333244         0.830818605
     0.031310730         0.636333244         0.330818605
     0.031310730         0.636333244         0.830818605
     0.031310730         0.886333244         0.330818605
     0.031310730         0.886333244         0.830818605
     0.364644063         0.136333244         0.330818605
     0.364644063         0.136333244         0.830818605
     0.364644063         0.386333244         0.330818605
     0.364644063         0.386333244         0.830818605
     0.364644063         0.636333244         0.330818605
     0.364644063         0.636333244         0.830818605
     0.364644063         0.886333244         0.330818605
     0.364644063         0.886333244         0.830818605
     0.697977397         0.136333244         0.330818605
     0.697977397         0.136333244         0.830818605
     0.697977397         0.386333244         0.330818605
     0.697977397         0.386333244         0.830818605
     0.697977397         0.636333244         0.330818605
     0.697977397         0.636333244         0.830818605
     0.697977397         0.886333244         0.330818605
     0.697977397         0.886333244         0.830818605
     0.035832512         0.135872678         0.482490454
     0.035832512         0.135872678         0.982490454
     0.035832512         0.385872678         0.482490454
     0.035832512         0.385872678         0.982490454
     0.035832512         0.635872678         0.482490454
     0.035832512         0.635872678         0.982490454
     0.035832512         0.885872678         0.482490454
     0.035832512         0.885872678         0.982490454
     0.369165845         0.135872678         0.482490454
     0.369165845         0.135872678         0.982490454
     0.369165845         0.385872678         0.482490454
     0.369165845         0.385872678         0.982490454
     0.369165845         0.635872678         0.482490454
     0.369165845         0.635872678         0.982490454
     0.369165845         0.885872678         0.482490454
     0.369165845         0.885872678         0.982490454
     0.702499179         0.135872678         0.482490454
     0.702499179         0.135872678         0.982490454
     0.702499179         0.385872678         0.482490454
     0.702499179         0.385872678         0.982490454
     0.702499179         0.635872678         0.482490454
     0.702499179         0.635872678         0.982490454
     0.702499179         0.885872678         0.482490454
     0.702499179         0.885872678         0.982490454
     0.153953274         0.074473325         0.351459137
     0.153953274         0.074473325         0.851459137
     0.153953274         0.324473325         0.351459137
     0.153953274         0.324473325         0.851459137
     0.153953274         0.574473325         0.351459137
     0.153953274         0.574473325         0.851459137
     0.153953274         0.824473325         0.351459137
     0.153953274         0.824473325         0.851459137
     0.487286608         0.074473325         0.351459137
     0.487286608         0.074473325         0.851459137
     0.487286608         0.324473325         0.351459137
     0.487286608         0.324473325         0.851459137
     0.487286608         0.574473325         0.351459137
     0.487286608         0.574473325         0.851459137
     0.487286608         0.824473325         0.351459137
     0.487286608         0.824473325         0.851459137
     0.820619941         0.074473325         0.351459137
     0.820619941         0.074473325         0.851459137
     0.820619941         0.324473325         0.351459137
     0.820619941         0.324473325         0.851459137
     0.820619941         0.574473325         0.351459137
     0.820619941         0.574473325         0.851459137
     0.820619941         0.824473325         0.351459137
     0.820619941         0.824473325         0.851459137
     0.318530093         0.011228140         0.355570098
     0.318530093         0.011228140         0.855570098
     0.318530093         0.261228140         0.355570098
     0.318530093         0.261228140         0.855570098
     0.318530093         0.511228140         0.355570098
     0.318530093         0.511228140         0.855570098
     0.318530093         0.761228140         0.355570098
     0.318530093         0.761228140         0.855570098
     0.651863427         0.011228140         0.355570098
     0.651863427         0.011228140         0.855570098
     0.651863427         0.261228140         0.355570098
     0.651863427         0.261228140         0.855570098
     0.651863427         0.511228140         0.355570098
     0.651863427         0.511228140         0.855570098
     0.651863427         0.761228140         0.355570098
     0.651863427         0.761228140         0.855570098
     0.985196760         0.011228140         0.355570098
     0.985196760         0.011228140         0.855570098
     0.985196760         0.261228140         0.355570098
     0.985196760         0.261228140         0.855570098
     0.985196760         0.511228140         0.355570098
     0.985196760         0.511228140         0.855570098
     0.985196760         0.761228140         0.355570098
     0.985196760         0.761228140         0.855570098
     0.100576079         0.200514750         0.231001095
     0.100576079         0.200514750         0.731001095
     0.100576079         0.450514750         0.231001095
     0.100576079         0.450514750         0.731001095
     0.100576079         0.700514750         0.231001095
     0.100576079         0.700514750         0.731001095
     0.100576079         0.950514750         0.231001095
     0.100576079         0.950514750         0.731001095
     0.433909412         0.200514750         0.231001095
     0.433909412         0.200514750         0.731001095
     0.433909412         0.450514750         0.231001095
     0.433909412         0.450514750         0.731001095
     0.433909412         0.700514750         0.231001095
     0.433909412         0.700514750         0.731001095
     0.433909412         0.950514750         0.231001095
     0.433909412         0.950514750         0.731001095
     0.767242746         0.200514750         0.231001095
     0.767242746         0.200514750         0.731001095
     0.767242746         0.450514750         0.231001095
     0.767242746         0.450514750         0.731001095
     0.767242746         0.700514750         0.231001095
     0.767242746         0.700514750         0.731001095
     0.767242746         0.950514750         0.231001095
     0.767242746         0.950514750         0.731001095
     0.200520470         0.202347336         0.484204195
     0.200520470         0.202347336         0.984204195
     0.200520470         0.452347336         0.484204195
     0.200520470         0.452347336         0.984204195
     0.200520470         0.702347336         0.484204195
     0.200520470         0.702347336         0.984204195
     0.200520470         0.952347336         0.484204195
     0.200520470         0.952347336         0.984204195
     0.533853803         0.202347336         0.484204195
     0.533853803         0.202347336         0.984204195
     0.533853803         0.452347336         0.484204195
     0.533853803         0.452347336         0.984204195
     0.533853803         0.702347336         0.484204195
     0.533853803         0.702347336         0.984204195
     0.533853803         0.952347336         0.484204195
     0.533853803         0.952347336         0.984204195
     0.867187136         0.202347336         0.484204195
     0.867187136         0.202347336         0.984204195
     0.867187136         0.452347336         0.484204195
     0.867187136         0.452347336         0.984204195
     0.867187136         0.702347336         0.484204195
     0.867187136         0.702347336         0.984204195
     0.867187136         0.952347336         0.484204195
     0.867187136         0.952347336         0.984204195
