TITL FeB4.vasp  0.00856104845125779  70.71497794206742  -88.37916038704407 0 0 10 (Pnnm)  n - 1
REM
REM
CELL 1.54180    4.519148    5.258253    2.975866    90.0    90.0    90.0    
LATT -1
SFAC Fe  B  
Fe  1  0.5000000000000004  0.9999999999999994  5.317926636462411e-16  1.0  
Fe  1  6.833717690853069e-16  0.4999999999999996  0.5000000000000004  1.0  
B  1  0.15675378330725548  0.8752515097503216  0.49999999999999994  1.0  
B  1  0.843246216692746  0.12474849024967746  0.5000000000000009  1.0  
B  1  0.6567537833072382  0.6247484902496547  1.1623838293368296e-15  1.0  
B  1  0.34324621669276334  0.37525150975034405  0.9999999999999999  1.0  
B  1  0.7522201849049294  0.8116099063795331  0.5000000000000001  1.0  
B  1  0.24777981509507202  0.1883900936204666  0.5000000000000009  1.0  
B  1  0.2522201849049436  0.6883900936203832  3.8200344510820136e-16  1.0  
B  1  0.7477798150950579  0.3116099063796157  6.98690695718446e-16  1.0  
END
