TITL Fe2B.vasp  0.014751221323401056  53.642011341733614  -48.45550277096912 0 0 6 (I4/mcm)  n - 1
REM
REM
CELL 1.54180    4.139004    4.139004    4.139004    105.33515    105.33515    118.103808    
LATT -1
SFAC Fe  B  
Fe  1  0.1669281958079362  0.6669281958100509  0.833856391617987  1.0  
Fe  1  0.3330718041920627  0.1669281958100515  0.5000000000021139  1.0  
Fe  1  0.8330718041920633  0.3330718041899491  0.16614360838201145  1.0  
Fe  1  0.6669281958079368  0.8330718041899492  0.4999999999978852  1.0  
B  1  0.25000000000000017  0.25000000000000033  0.9999999999999999  1.0  
B  1  0.7499999999999998  0.75  0.0  1.0  
END
