TITL Fe23B6.vasp  10.002209472057116  282.9452588320347  -235.7037226468373 0 0 29 (Fm-3m)  n - 1
REM
REM
CELL 1.54180    7.368951    7.368959    7.368951    59.99996    60.000073    59.99996    
LATT -1
SFAC Fe  B  
Fe  1  7.915387515711983e-16  5.767686432014399e-16  0.9999999999999992  1.0  
Fe  1  0.2499999999733596  0.24999999995648065  0.24999999993195518  1.0  
Fe  1  0.7500000000266429  0.7500000000435215  0.750000000068045  1.0  
Fe  1  1.8274645759469803e-11  0.34210883071004144  1.8221301580136296e-11  1.0  
Fe  1  0.3421088110190496  1.1945270912655796e-08  0.9999999880899112  1.0  
Fe  1  1.1923439468693002e-08  0.34210881114187397  0.6578911888641428  1.0  
Fe  1  0.6578911691832924  4.133186557846763e-12  0.3421088308083934  1.0  
Fe  1  0.3421088308167097  0.9999999999958697  0.6578911691916057  1.0  
Fe  1  0.9999999880944703  1.194931885893845e-08  0.3421088110337322  1.0  
Fe  1  0.6578911888787915  0.34210881111862007  1.1927943836986987e-08  1.0  
Fe  1  0.9999999880765623  0.657891188858129  0.34210881113585756  1.0  
Fe  1  1.1905531503053964e-08  0.9999999880506832  0.6578911889662674  1.0  
Fe  1  0.34210881112121033  0.657891188881382  0.9999999880720556  1.0  
Fe  1  0.6578911889809519  0.9999999880547316  1.191008742650205e-08  1.0  
Fe  1  0.9999999999817277  0.6578911692899604  0.9999999999817776  1.0  
Fe  1  0.38070601843072005  0.38070604581062806  0.3807060184630685  1.0  
Fe  1  0.14211808255440891  0.6192939815634286  0.6192939541766751  1.0  
Fe  1  0.6192939815753973  0.14211808254085423  0.6192939815430035  1.0  
Fe  1  0.6192939542111631  0.6192939815647954  0.14211808251714358  1.0  
Fe  1  0.38070601842460466  0.8578819174591485  0.3807060184569962  1.0  
Fe  1  0.3807060457888387  0.38070601843520674  0.8578819174828566  1.0  
Fe  1  0.8578819174455937  0.3807060184365736  0.3807060458233255  1.0  
Fe  1  0.6192939815692825  0.6192939541893747  0.619293981536931  1.0  
B  1  0.27604975344883714  0.7239502465358035  0.27604975345453714  1.0  
B  1  0.27604973755347556  0.7239502624613028  0.7239502624548327  1.0  
B  1  0.7239502624465264  0.27604973753869955  0.2760497375451674  1.0  
B  1  0.7239502624574619  0.7239502624590298  0.2760497375557475  1.0  
B  1  0.2760497375425392  0.27604973754097367  0.723950262444252  1.0  
B  1  0.7239502465511638  0.2760497534641999  0.7239502465454628  1.0  
END
