"B17 Cr3"
1.0
       14.3556041718         0.0000000000         0.0000000000
        0.0000000000        15.6074218750         0.0000000000
        0.0000000000         0.0000000000        18.3882770538
    B   Cr
  459   81
Direct
     0.050064000         0.136247000         0.199641000
     0.050064000         0.136247000         0.532974333
     0.050064000         0.136247000         0.866307667
     0.050064000         0.469580333         0.199641000
     0.050064000         0.469580333         0.532974333
     0.050064000         0.469580333         0.866307667
     0.050064000         0.802913667         0.199641000
     0.050064000         0.802913667         0.532974333
     0.050064000         0.802913667         0.866307667
     0.383397333         0.136247000         0.199641000
     0.383397333         0.136247000         0.532974333
     0.383397333         0.136247000         0.866307667
     0.383397333         0.469580333         0.199641000
     0.383397333         0.469580333         0.532974333
     0.383397333         0.469580333         0.866307667
     0.383397333         0.802913667         0.199641000
     0.383397333         0.802913667         0.532974333
     0.383397333         0.802913667         0.866307667
     0.716730667         0.136247000         0.199641000
     0.716730667         0.136247000         0.532974333
     0.716730667         0.136247000         0.866307667
     0.716730667         0.469580333         0.199641000
     0.716730667         0.469580333         0.532974333
     0.716730667         0.469580333         0.866307667
     0.716730667         0.802913667         0.199641000
     0.716730667         0.802913667         0.532974333
     0.716730667         0.802913667         0.866307667
     0.039523000         0.304717000         0.293217000
     0.039523000         0.304717000         0.626550333
     0.039523000         0.304717000         0.959883667
     0.039523000         0.638050333         0.293217000
     0.039523000         0.638050333         0.626550333
     0.039523000         0.638050333         0.959883667
     0.039523000         0.971383667         0.293217000
     0.039523000         0.971383667         0.626550333
     0.039523000         0.971383667         0.959883667
     0.372856333         0.304717000         0.293217000
     0.372856333         0.304717000         0.626550333
     0.372856333         0.304717000         0.959883667
     0.372856333         0.638050333         0.293217000
     0.372856333         0.638050333         0.626550333
     0.372856333         0.638050333         0.959883667
     0.372856333         0.971383667         0.293217000
     0.372856333         0.971383667         0.626550333
     0.372856333         0.971383667         0.959883667
     0.706189667         0.304717000         0.293217000
     0.706189667         0.304717000         0.626550333
     0.706189667         0.304717000         0.959883667
     0.706189667         0.638050333         0.293217000
     0.706189667         0.638050333         0.626550333
     0.706189667         0.638050333         0.959883667
     0.706189667         0.971383667         0.293217000
     0.706189667         0.971383667         0.626550333
     0.706189667         0.971383667         0.959883667
     0.028971000         0.190690000         0.286842000
     0.028971000         0.190690000         0.620175333
     0.028971000         0.190690000         0.953508667
     0.028971000         0.524023333         0.286842000
     0.028971000         0.524023333         0.620175333
     0.028971000         0.524023333         0.953508667
     0.028971000         0.857356667         0.286842000
     0.028971000         0.857356667         0.620175333
     0.028971000         0.857356667         0.953508667
     0.362304333         0.190690000         0.286842000
     0.362304333         0.190690000         0.620175333
     0.362304333         0.190690000         0.953508667
     0.362304333         0.524023333         0.286842000
     0.362304333         0.524023333         0.620175333
     0.362304333         0.524023333         0.953508667
     0.362304333         0.857356667         0.286842000
     0.362304333         0.857356667         0.620175333
     0.362304333         0.857356667         0.953508667
     0.695637667         0.190690000         0.286842000
     0.695637667         0.190690000         0.620175333
     0.695637667         0.190690000         0.953508667
     0.695637667         0.524023333         0.286842000
     0.695637667         0.524023333         0.620175333
     0.695637667         0.524023333         0.953508667
     0.695637667         0.857356667         0.286842000
     0.695637667         0.857356667         0.620175333
     0.695637667         0.857356667         0.953508667
     0.081956000         0.020504000         0.042843000
     0.081956000         0.020504000         0.376176333
     0.081956000         0.020504000         0.709509667
     0.081956000         0.353837333         0.042843000
     0.081956000         0.353837333         0.376176333
     0.081956000         0.353837333         0.709509667
     0.081956000         0.687170667         0.042843000
     0.081956000         0.687170667         0.376176333
     0.081956000         0.687170667         0.709509667
     0.415289333         0.020504000         0.042843000
     0.415289333         0.020504000         0.376176333
     0.415289333         0.020504000         0.709509667
     0.415289333         0.353837333         0.042843000
     0.415289333         0.353837333         0.376176333
     0.415289333         0.353837333         0.709509667
     0.415289333         0.687170667         0.042843000
     0.415289333         0.687170667         0.376176333
     0.415289333         0.687170667         0.709509667
     0.748622667         0.020504000         0.042843000
     0.748622667         0.020504000         0.376176333
     0.748622667         0.020504000         0.709509667
     0.748622667         0.353837333         0.042843000
     0.748622667         0.353837333         0.376176333
     0.748622667         0.353837333         0.709509667
     0.748622667         0.687170667         0.042843000
     0.748622667         0.687170667         0.376176333
     0.748622667         0.687170667         0.709509667
     0.222084000         0.030139000         0.193995000
     0.222084000         0.030139000         0.527328333
     0.222084000         0.030139000         0.860661667
     0.222084000         0.363472333         0.193995000
     0.222084000         0.363472333         0.527328333
     0.222084000         0.363472333         0.860661667
     0.222084000         0.696805667         0.193995000
     0.222084000         0.696805667         0.527328333
     0.222084000         0.696805667         0.860661667
     0.555417333         0.030139000         0.193995000
     0.555417333         0.030139000         0.527328333
     0.555417333         0.030139000         0.860661667
     0.555417333         0.363472333         0.193995000
     0.555417333         0.363472333         0.527328333
     0.555417333         0.363472333         0.860661667
     0.555417333         0.696805667         0.193995000
     0.555417333         0.696805667         0.527328333
     0.555417333         0.696805667         0.860661667
     0.888750667         0.030139000         0.193995000
     0.888750667         0.030139000         0.527328333
     0.888750667         0.030139000         0.860661667
     0.888750667         0.363472333         0.193995000
     0.888750667         0.363472333         0.527328333
     0.888750667         0.363472333         0.860661667
     0.888750667         0.696805667         0.193995000
     0.888750667         0.696805667         0.527328333
     0.888750667         0.696805667         0.860661667
     0.223722000         0.205966000         0.120548000
     0.223722000         0.205966000         0.453881333
     0.223722000         0.205966000         0.787214667
     0.223722000         0.539299333         0.120548000
     0.223722000         0.539299333         0.453881333
     0.223722000         0.539299333         0.787214667
     0.223722000         0.872632667         0.120548000
     0.223722000         0.872632667         0.453881333
     0.223722000         0.872632667         0.787214667
     0.557055333         0.205966000         0.120548000
     0.557055333         0.205966000         0.453881333
     0.557055333         0.205966000         0.787214667
     0.557055333         0.539299333         0.120548000
     0.557055333         0.539299333         0.453881333
     0.557055333         0.539299333         0.787214667
     0.557055333         0.872632667         0.120548000
     0.557055333         0.872632667         0.453881333
     0.557055333         0.872632667         0.787214667
     0.890388667         0.205966000         0.120548000
     0.890388667         0.205966000         0.453881333
     0.890388667         0.205966000         0.787214667
     0.890388667         0.539299333         0.120548000
     0.890388667         0.539299333         0.453881333
     0.890388667         0.539299333         0.787214667
     0.890388667         0.872632667         0.120548000
     0.890388667         0.872632667         0.453881333
     0.890388667         0.872632667         0.787214667
     0.286184000         0.133081000         0.006296000
     0.286184000         0.133081000         0.339629333
     0.286184000         0.133081000         0.672962667
     0.286184000         0.466414333         0.006296000
     0.286184000         0.466414333         0.339629333
     0.286184000         0.466414333         0.672962667
     0.286184000         0.799747667         0.006296000
     0.286184000         0.799747667         0.339629333
     0.286184000         0.799747667         0.672962667
     0.619517333         0.133081000         0.006296000
     0.619517333         0.133081000         0.339629333
     0.619517333         0.133081000         0.672962667
     0.619517333         0.466414333         0.006296000
     0.619517333         0.466414333         0.339629333
     0.619517333         0.466414333         0.672962667
     0.619517333         0.799747667         0.006296000
     0.619517333         0.799747667         0.339629333
     0.619517333         0.799747667         0.672962667
     0.952850667         0.133081000         0.006296000
     0.952850667         0.133081000         0.339629333
     0.952850667         0.133081000         0.672962667
     0.952850667         0.466414333         0.006296000
     0.952850667         0.466414333         0.339629333
     0.952850667         0.466414333         0.672962667
     0.952850667         0.799747667         0.006296000
     0.952850667         0.799747667         0.339629333
     0.952850667         0.799747667         0.672962667
     0.021863000         0.023868000         0.208114000
     0.021863000         0.023868000         0.541447333
     0.021863000         0.023868000         0.874780667
     0.021863000         0.357201333         0.208114000
     0.021863000         0.357201333         0.541447333
     0.021863000         0.357201333         0.874780667
     0.021863000         0.690534667         0.208114000
     0.021863000         0.690534667         0.541447333
     0.021863000         0.690534667         0.874780667
     0.355196333         0.023868000         0.208114000
     0.355196333         0.023868000         0.541447333
     0.355196333         0.023868000         0.874780667
     0.355196333         0.357201333         0.208114000
     0.355196333         0.357201333         0.541447333
     0.355196333         0.357201333         0.874780667
     0.355196333         0.690534667         0.208114000
     0.355196333         0.690534667         0.541447333
     0.355196333         0.690534667         0.874780667
     0.688529667         0.023868000         0.208114000
     0.688529667         0.023868000         0.541447333
     0.688529667         0.023868000         0.874780667
     0.688529667         0.357201333         0.208114000
     0.688529667         0.357201333         0.541447333
     0.688529667         0.357201333         0.874780667
     0.688529667         0.690534667         0.208114000
     0.688529667         0.690534667         0.541447333
     0.688529667         0.690534667         0.874780667
     0.183744000         0.158808000         0.039662000
     0.183744000         0.158808000         0.372995333
     0.183744000         0.158808000         0.706328667
     0.183744000         0.492141333         0.039662000
     0.183744000         0.492141333         0.372995333
     0.183744000         0.492141333         0.706328667
     0.183744000         0.825474667         0.039662000
     0.183744000         0.825474667         0.372995333
     0.183744000         0.825474667         0.706328667
     0.517077333         0.158808000         0.039662000
     0.517077333         0.158808000         0.372995333
     0.517077333         0.158808000         0.706328667
     0.517077333         0.492141333         0.039662000
     0.517077333         0.492141333         0.372995333
     0.517077333         0.492141333         0.706328667
     0.517077333         0.825474667         0.039662000
     0.517077333         0.825474667         0.372995333
     0.517077333         0.825474667         0.706328667
     0.850410667         0.158808000         0.039662000
     0.850410667         0.158808000         0.372995333
     0.850410667         0.158808000         0.706328667
     0.850410667         0.492141333         0.039662000
     0.850410667         0.492141333         0.372995333
     0.850410667         0.492141333         0.706328667
     0.850410667         0.825474667         0.039662000
     0.850410667         0.825474667         0.372995333
     0.850410667         0.825474667         0.706328667
     0.202543000         0.139186000         0.192339000
     0.202543000         0.139186000         0.525672333
     0.202543000         0.139186000         0.859005667
     0.202543000         0.472519333         0.192339000
     0.202543000         0.472519333         0.525672333
     0.202543000         0.472519333         0.859005667
     0.202543000         0.805852667         0.192339000
     0.202543000         0.805852667         0.525672333
     0.202543000         0.805852667         0.859005667
     0.535876333         0.139186000         0.192339000
     0.535876333         0.139186000         0.525672333
     0.535876333         0.139186000         0.859005667
     0.535876333         0.472519333         0.192339000
     0.535876333         0.472519333         0.525672333
     0.535876333         0.472519333         0.859005667
     0.535876333         0.805852667         0.192339000
     0.535876333         0.805852667         0.525672333
     0.535876333         0.805852667         0.859005667
     0.869209667         0.139186000         0.192339000
     0.869209667         0.139186000         0.525672333
     0.869209667         0.139186000         0.859005667
     0.869209667         0.472519333         0.192339000
     0.869209667         0.472519333         0.525672333
     0.869209667         0.472519333         0.859005667
     0.869209667         0.805852667         0.192339000
     0.869209667         0.805852667         0.525672333
     0.869209667         0.805852667         0.859005667
     0.246192000         0.314054000         0.275971000
     0.246192000         0.314054000         0.609304333
     0.246192000         0.314054000         0.942637667
     0.246192000         0.647387333         0.275971000
     0.246192000         0.647387333         0.609304333
     0.246192000         0.647387333         0.942637667
     0.246192000         0.980720667         0.275971000
     0.246192000         0.980720667         0.609304333
     0.246192000         0.980720667         0.942637667
     0.579525333         0.314054000         0.275971000
     0.579525333         0.314054000         0.609304333
     0.579525333         0.314054000         0.942637667
     0.579525333         0.647387333         0.275971000
     0.579525333         0.647387333         0.609304333
     0.579525333         0.647387333         0.942637667
     0.579525333         0.980720667         0.275971000
     0.579525333         0.980720667         0.609304333
     0.579525333         0.980720667         0.942637667
     0.912858667         0.314054000         0.275971000
     0.912858667         0.314054000         0.609304333
     0.912858667         0.314054000         0.942637667
     0.912858667         0.647387333         0.275971000
     0.912858667         0.647387333         0.609304333
     0.912858667         0.647387333         0.942637667
     0.912858667         0.980720667         0.275971000
     0.912858667         0.980720667         0.609304333
     0.912858667         0.980720667         0.942637667
     0.218834000         0.029462000         0.028063000
     0.218834000         0.029462000         0.361396333
     0.218834000         0.029462000         0.694729667
     0.218834000         0.362795333         0.028063000
     0.218834000         0.362795333         0.361396333
     0.218834000         0.362795333         0.694729667
     0.218834000         0.696128667         0.028063000
     0.218834000         0.696128667         0.361396333
     0.218834000         0.696128667         0.694729667
     0.552167333         0.029462000         0.028063000
     0.552167333         0.029462000         0.361396333
     0.552167333         0.029462000         0.694729667
     0.552167333         0.362795333         0.028063000
     0.552167333         0.362795333         0.361396333
     0.552167333         0.362795333         0.694729667
     0.552167333         0.696128667         0.028063000
     0.552167333         0.696128667         0.361396333
     0.552167333         0.696128667         0.694729667
     0.885500667         0.029462000         0.028063000
     0.885500667         0.029462000         0.361396333
     0.885500667         0.029462000         0.694729667
     0.885500667         0.362795333         0.028063000
     0.885500667         0.362795333         0.361396333
     0.885500667         0.362795333         0.694729667
     0.885500667         0.696128667         0.028063000
     0.885500667         0.696128667         0.361396333
     0.885500667         0.696128667         0.694729667
     0.033317000         0.199688000         0.124999000
     0.033317000         0.199688000         0.458332333
     0.033317000         0.199688000         0.791665667
     0.033317000         0.533021333         0.124999000
     0.033317000         0.533021333         0.458332333
     0.033317000         0.533021333         0.791665667
     0.033317000         0.866354667         0.124999000
     0.033317000         0.866354667         0.458332333
     0.033317000         0.866354667         0.791665667
     0.366650333         0.199688000         0.124999000
     0.366650333         0.199688000         0.458332333
     0.366650333         0.199688000         0.791665667
     0.366650333         0.533021333         0.124999000
     0.366650333         0.533021333         0.458332333
     0.366650333         0.533021333         0.791665667
     0.366650333         0.866354667         0.124999000
     0.366650333         0.866354667         0.458332333
     0.366650333         0.866354667         0.791665667
     0.699983667         0.199688000         0.124999000
     0.699983667         0.199688000         0.458332333
     0.699983667         0.199688000         0.791665667
     0.699983667         0.533021333         0.124999000
     0.699983667         0.533021333         0.458332333
     0.699983667         0.533021333         0.791665667
     0.699983667         0.866354667         0.124999000
     0.699983667         0.866354667         0.458332333
     0.699983667         0.866354667         0.791665667
     0.055024000         0.306023000         0.122641000
     0.055024000         0.306023000         0.455974333
     0.055024000         0.306023000         0.789307667
     0.055024000         0.639356333         0.122641000
     0.055024000         0.639356333         0.455974333
     0.055024000         0.639356333         0.789307667
     0.055024000         0.972689667         0.122641000
     0.055024000         0.972689667         0.455974333
     0.055024000         0.972689667         0.789307667
     0.388357333         0.306023000         0.122641000
     0.388357333         0.306023000         0.455974333
     0.388357333         0.306023000         0.789307667
     0.388357333         0.639356333         0.122641000
     0.388357333         0.639356333         0.455974333
     0.388357333         0.639356333         0.789307667
     0.388357333         0.972689667         0.122641000
     0.388357333         0.972689667         0.455974333
     0.388357333         0.972689667         0.789307667
     0.721690667         0.306023000         0.122641000
     0.721690667         0.306023000         0.455974333
     0.721690667         0.306023000         0.789307667
     0.721690667         0.639356333         0.122641000
     0.721690667         0.639356333         0.455974333
     0.721690667         0.639356333         0.789307667
     0.721690667         0.972689667         0.122641000
     0.721690667         0.972689667         0.455974333
     0.721690667         0.972689667         0.789307667
     0.065717000         0.141398000         0.040677000
     0.065717000         0.141398000         0.374010333
     0.065717000         0.141398000         0.707343667
     0.065717000         0.474731333         0.040677000
     0.065717000         0.474731333         0.374010333
     0.065717000         0.474731333         0.707343667
     0.065717000         0.808064667         0.040677000
     0.065717000         0.808064667         0.374010333
     0.065717000         0.808064667         0.707343667
     0.399050333         0.141398000         0.040677000
     0.399050333         0.141398000         0.374010333
     0.399050333         0.141398000         0.707343667
     0.399050333         0.474731333         0.040677000
     0.399050333         0.474731333         0.374010333
     0.399050333         0.474731333         0.707343667
     0.399050333         0.808064667         0.040677000
     0.399050333         0.808064667         0.374010333
     0.399050333         0.808064667         0.707343667
     0.732383667         0.141398000         0.040677000
     0.732383667         0.141398000         0.374010333
     0.732383667         0.141398000         0.707343667
     0.732383667         0.474731333         0.040677000
     0.732383667         0.474731333         0.374010333
     0.732383667         0.474731333         0.707343667
     0.732383667         0.808064667         0.040677000
     0.732383667         0.808064667         0.374010333
     0.732383667         0.808064667         0.707343667
     0.233937000         0.198245000         0.281985000
     0.233937000         0.198245000         0.615318333
     0.233937000         0.198245000         0.948651667
     0.233937000         0.531578333         0.281985000
     0.233937000         0.531578333         0.615318333
     0.233937000         0.531578333         0.948651667
     0.233937000         0.864911667         0.281985000
     0.233937000         0.864911667         0.615318333
     0.233937000         0.864911667         0.948651667
     0.567270333         0.198245000         0.281985000
     0.567270333         0.198245000         0.615318333
     0.567270333         0.198245000         0.948651667
     0.567270333         0.531578333         0.281985000
     0.567270333         0.531578333         0.615318333
     0.567270333         0.531578333         0.948651667
     0.567270333         0.864911667         0.281985000
     0.567270333         0.864911667         0.615318333
     0.567270333         0.864911667         0.948651667
     0.900603667         0.198245000         0.281985000
     0.900603667         0.198245000         0.615318333
     0.900603667         0.198245000         0.948651667
     0.900603667         0.531578333         0.281985000
     0.900603667         0.531578333         0.615318333
     0.900603667         0.531578333         0.948651667
     0.900603667         0.864911667         0.281985000
     0.900603667         0.864911667         0.615318333
     0.900603667         0.864911667         0.948651667
     0.188083000         0.312200000         0.108872000
     0.188083000         0.312200000         0.442205333
     0.188083000         0.312200000         0.775538667
     0.188083000         0.645533333         0.108872000
     0.188083000         0.645533333         0.442205333
     0.188083000         0.645533333         0.775538667
     0.188083000         0.978866667         0.108872000
     0.188083000         0.978866667         0.442205333
     0.188083000         0.978866667         0.775538667
     0.521416333         0.312200000         0.108872000
     0.521416333         0.312200000         0.442205333
     0.521416333         0.312200000         0.775538667
     0.521416333         0.645533333         0.108872000
     0.521416333         0.645533333         0.442205333
     0.521416333         0.645533333         0.775538667
     0.521416333         0.978866667         0.108872000
     0.521416333         0.978866667         0.442205333
     0.521416333         0.978866667         0.775538667
     0.854749667         0.312200000         0.108872000
     0.854749667         0.312200000         0.442205333
     0.854749667         0.312200000         0.775538667
     0.854749667         0.645533333         0.108872000
     0.854749667         0.645533333         0.442205333
     0.854749667         0.645533333         0.775538667
     0.854749667         0.978866667         0.108872000
     0.854749667         0.978866667         0.442205333
     0.854749667         0.978866667         0.775538667
     0.297184000         0.087442000         0.112532000
     0.297184000         0.087442000         0.445865333
     0.297184000         0.087442000         0.779198667
     0.297184000         0.420775333         0.112532000
     0.297184000         0.420775333         0.445865333
     0.297184000         0.420775333         0.779198667
     0.297184000         0.754108667         0.112532000
     0.297184000         0.754108667         0.445865333
     0.297184000         0.754108667         0.779198667
     0.630517333         0.087442000         0.112532000
     0.630517333         0.087442000         0.445865333
     0.630517333         0.087442000         0.779198667
     0.630517333         0.420775333         0.112532000
     0.630517333         0.420775333         0.445865333
     0.630517333         0.420775333         0.779198667
     0.630517333         0.754108667         0.112532000
     0.630517333         0.754108667         0.445865333
     0.630517333         0.754108667         0.779198667
     0.963850667         0.087442000         0.112532000
     0.963850667         0.087442000         0.445865333
     0.963850667         0.087442000         0.779198667
     0.963850667         0.420775333         0.112532000
     0.963850667         0.420775333         0.445865333
     0.963850667         0.420775333         0.779198667
     0.963850667         0.754108667         0.112532000
     0.963850667         0.754108667         0.445865333
     0.963850667         0.754108667         0.779198667
     0.131445000         0.252490000         0.209168000
     0.131445000         0.252490000         0.542501333
     0.131445000         0.252490000         0.875834667
     0.131445000         0.585823333         0.209168000
     0.131445000         0.585823333         0.542501333
     0.131445000         0.585823333         0.875834667
     0.131445000         0.919156667         0.209168000
     0.131445000         0.919156667         0.542501333
     0.131445000         0.919156667         0.875834667
     0.464778333         0.252490000         0.209168000
     0.464778333         0.252490000         0.542501333
     0.464778333         0.252490000         0.875834667
     0.464778333         0.585823333         0.209168000
     0.464778333         0.585823333         0.542501333
     0.464778333         0.585823333         0.875834667
     0.464778333         0.919156667         0.209168000
     0.464778333         0.919156667         0.542501333
     0.464778333         0.919156667         0.875834667
     0.798111667         0.252490000         0.209168000
     0.798111667         0.252490000         0.542501333
     0.798111667         0.252490000         0.875834667
     0.798111667         0.585823333         0.209168000
     0.798111667         0.585823333         0.542501333
     0.798111667         0.585823333         0.875834667
     0.798111667         0.919156667         0.209168000
     0.798111667         0.919156667         0.542501333
     0.798111667         0.919156667         0.875834667
     0.134160000         0.080090000         0.277998000
     0.134160000         0.080090000         0.611331333
     0.134160000         0.080090000         0.944664667
     0.134160000         0.413423333         0.277998000
     0.134160000         0.413423333         0.611331333
     0.134160000         0.413423333         0.944664667
     0.134160000         0.746756667         0.277998000
     0.134160000         0.746756667         0.611331333
     0.134160000         0.746756667         0.944664667
     0.467493333         0.080090000         0.277998000
     0.467493333         0.080090000         0.611331333
     0.467493333         0.080090000         0.944664667
     0.467493333         0.413423333         0.277998000
     0.467493333         0.413423333         0.611331333
     0.467493333         0.413423333         0.944664667
     0.467493333         0.746756667         0.277998000
     0.467493333         0.746756667         0.611331333
     0.467493333         0.746756667         0.944664667
     0.800826667         0.080090000         0.277998000
     0.800826667         0.080090000         0.611331333
     0.800826667         0.080090000         0.944664667
     0.800826667         0.413423333         0.277998000
     0.800826667         0.413423333         0.611331333
     0.800826667         0.413423333         0.944664667
     0.800826667         0.746756667         0.277998000
     0.800826667         0.746756667         0.611331333
     0.800826667         0.746756667         0.944664667
