"B14 Cr6"
1.0
       14.6553440094         0.0000000000         0.0000000000
        0.0000000000        16.3866901398         0.0000000000
        0.0000000000         0.0000000000        16.1706428528
    B   Cr
  336  144
Direct
     0.121934872         0.255239932         0.052911615
     0.121934872         0.255239932         0.302911615
     0.121934872         0.255239932         0.552911615
     0.121934872         0.255239932         0.802911615
     0.121934872         0.588573265         0.052911615
     0.121934872         0.588573265         0.302911615
     0.121934872         0.588573265         0.552911615
     0.121934872         0.588573265         0.802911615
     0.121934872         0.921906599         0.052911615
     0.121934872         0.921906599         0.302911615
     0.121934872         0.921906599         0.552911615
     0.121934872         0.921906599         0.802911615
     0.621934872         0.255239932         0.052911615
     0.621934872         0.255239932         0.302911615
     0.621934872         0.255239932         0.552911615
     0.621934872         0.255239932         0.802911615
     0.621934872         0.588573265         0.052911615
     0.621934872         0.588573265         0.302911615
     0.621934872         0.588573265         0.552911615
     0.621934872         0.588573265         0.802911615
     0.621934872         0.921906599         0.052911615
     0.621934872         0.921906599         0.302911615
     0.621934872         0.921906599         0.552911615
     0.621934872         0.921906599         0.802911615
     0.074412661         0.182371922         0.239285937
     0.074412661         0.182371922         0.489285937
     0.074412661         0.182371922         0.739285937
     0.074412661         0.182371922         0.989285937
     0.074412661         0.515705255         0.239285937
     0.074412661         0.515705255         0.489285937
     0.074412661         0.515705255         0.739285937
     0.074412661         0.515705255         0.989285937
     0.074412661         0.849038588         0.239285937
     0.074412661         0.849038588         0.489285937
     0.074412661         0.849038588         0.739285937
     0.074412661         0.849038588         0.989285937
     0.574412661         0.182371922         0.239285937
     0.574412661         0.182371922         0.489285937
     0.574412661         0.182371922         0.739285937
     0.574412661         0.182371922         0.989285937
     0.574412661         0.515705255         0.239285937
     0.574412661         0.515705255         0.489285937
     0.574412661         0.515705255         0.739285937
     0.574412661         0.515705255         0.989285937
     0.574412661         0.849038588         0.239285937
     0.574412661         0.849038588         0.489285937
     0.574412661         0.849038588         0.739285937
     0.574412661         0.849038588         0.989285937
     0.487515637         0.039306401         0.113222675
     0.487515637         0.039306401         0.363222675
     0.487515637         0.039306401         0.613222675
     0.487515637         0.039306401         0.863222675
     0.487515637         0.372639734         0.113222675
     0.487515637         0.372639734         0.363222675
     0.487515637         0.372639734         0.613222675
     0.487515637         0.372639734         0.863222675
     0.487515637         0.705973068         0.113222675
     0.487515637         0.705973068         0.363222675
     0.487515637         0.705973068         0.613222675
     0.487515637         0.705973068         0.863222675
     0.987515637         0.039306401         0.113222675
     0.987515637         0.039306401         0.363222675
     0.987515637         0.039306401         0.613222675
     0.987515637         0.039306401         0.863222675
     0.987515637         0.372639734         0.113222675
     0.987515637         0.372639734         0.363222675
     0.987515637         0.372639734         0.613222675
     0.987515637         0.372639734         0.863222675
     0.987515637         0.705973068         0.113222675
     0.987515637         0.705973068         0.363222675
     0.987515637         0.705973068         0.613222675
     0.987515637         0.705973068         0.863222675
     0.305963812         0.082817496         0.232569814
     0.305963812         0.082817496         0.482569814
     0.305963812         0.082817496         0.732569814
     0.305963812         0.082817496         0.982569814
     0.305963812         0.416150829         0.232569814
     0.305963812         0.416150829         0.482569814
     0.305963812         0.416150829         0.732569814
     0.305963812         0.416150829         0.982569814
     0.305963812         0.749484163         0.232569814
     0.305963812         0.749484163         0.482569814
     0.305963812         0.749484163         0.732569814
     0.305963812         0.749484163         0.982569814
     0.805963812         0.082817496         0.232569814
     0.805963812         0.082817496         0.482569814
     0.805963812         0.082817496         0.732569814
     0.805963812         0.082817496         0.982569814
     0.805963812         0.416150829         0.232569814
     0.805963812         0.416150829         0.482569814
     0.805963812         0.416150829         0.732569814
     0.805963812         0.416150829         0.982569814
     0.805963812         0.749484163         0.232569814
     0.805963812         0.749484163         0.482569814
     0.805963812         0.749484163         0.732569814
     0.805963812         0.749484163         0.982569814
     0.214635640         0.246245409         0.118898249
     0.214635640         0.246245409         0.368898249
     0.214635640         0.246245409         0.618898249
     0.214635640         0.246245409         0.868898249
     0.214635640         0.579578742         0.118898249
     0.214635640         0.579578742         0.368898249
     0.214635640         0.579578742         0.618898249
     0.214635640         0.579578742         0.868898249
     0.214635640         0.912912076         0.118898249
     0.214635640         0.912912076         0.368898249
     0.214635640         0.912912076         0.618898249
     0.214635640         0.912912076         0.868898249
     0.714635640         0.246245409         0.118898249
     0.714635640         0.246245409         0.368898249
     0.714635640         0.246245409         0.618898249
     0.714635640         0.246245409         0.868898249
     0.714635640         0.579578742         0.118898249
     0.714635640         0.579578742         0.368898249
     0.714635640         0.579578742         0.618898249
     0.714635640         0.579578742         0.868898249
     0.714635640         0.912912076         0.118898249
     0.714635640         0.912912076         0.368898249
     0.714635640         0.912912076         0.618898249
     0.714635640         0.912912076         0.868898249
     0.438641507         0.299164191         0.176054248
     0.438641507         0.299164191         0.426054248
     0.438641507         0.299164191         0.676054248
     0.438641507         0.299164191         0.926054248
     0.438641507         0.632497524         0.176054248
     0.438641507         0.632497524         0.426054248
     0.438641507         0.632497524         0.676054248
     0.438641507         0.632497524         0.926054248
     0.438641507         0.965830857         0.176054248
     0.438641507         0.965830857         0.426054248
     0.438641507         0.965830857         0.676054248
     0.438641507         0.965830857         0.926054248
     0.938641507         0.299164191         0.176054248
     0.938641507         0.299164191         0.426054248
     0.938641507         0.299164191         0.676054248
     0.938641507         0.299164191         0.926054248
     0.938641507         0.632497524         0.176054248
     0.938641507         0.632497524         0.426054248
     0.938641507         0.632497524         0.676054248
     0.938641507         0.632497524         0.926054248
     0.938641507         0.965830857         0.176054248
     0.938641507         0.965830857         0.426054248
     0.938641507         0.965830857         0.676054248
     0.938641507         0.965830857         0.926054248
     0.312226383         0.251643752         0.060712859
     0.312226383         0.251643752         0.310712859
     0.312226383         0.251643752         0.560712859
     0.312226383         0.251643752         0.810712859
     0.312226383         0.584977086         0.060712859
     0.312226383         0.584977086         0.310712859
     0.312226383         0.584977086         0.560712859
     0.312226383         0.584977086         0.810712859
     0.312226383         0.918310419         0.060712859
     0.312226383         0.918310419         0.310712859
     0.312226383         0.918310419         0.560712859
     0.312226383         0.918310419         0.810712859
     0.812226383         0.251643752         0.060712859
     0.812226383         0.251643752         0.310712859
     0.812226383         0.251643752         0.560712859
     0.812226383         0.251643752         0.810712859
     0.812226383         0.584977086         0.060712859
     0.812226383         0.584977086         0.310712859
     0.812226383         0.584977086         0.560712859
     0.812226383         0.584977086         0.810712859
     0.812226383         0.918310419         0.060712859
     0.812226383         0.918310419         0.310712859
     0.812226383         0.918310419         0.560712859
     0.812226383         0.918310419         0.810712859
     0.435982563         0.134845559         0.112554622
     0.435982563         0.134845559         0.362554622
     0.435982563         0.134845559         0.612554622
     0.435982563         0.134845559         0.862554622
     0.435982563         0.468178892         0.112554622
     0.435982563         0.468178892         0.362554622
     0.435982563         0.468178892         0.612554622
     0.435982563         0.468178892         0.862554622
     0.435982563         0.801512226         0.112554622
     0.435982563         0.801512226         0.362554622
     0.435982563         0.801512226         0.612554622
     0.435982563         0.801512226         0.862554622
     0.935982563         0.134845559         0.112554622
     0.935982563         0.134845559         0.362554622
     0.935982563         0.134845559         0.612554622
     0.935982563         0.134845559         0.862554622
     0.935982563         0.468178892         0.112554622
     0.935982563         0.468178892         0.362554622
     0.935982563         0.468178892         0.612554622
     0.935982563         0.468178892         0.862554622
     0.935982563         0.801512226         0.112554622
     0.935982563         0.801512226         0.362554622
     0.935982563         0.801512226         0.612554622
     0.935982563         0.801512226         0.862554622
     0.079413759         0.017825665         0.051746984
     0.079413759         0.017825665         0.301746984
     0.079413759         0.017825665         0.551746984
     0.079413759         0.017825665         0.801746984
     0.079413759         0.351158998         0.051746984
     0.079413759         0.351158998         0.301746984
     0.079413759         0.351158998         0.551746984
     0.079413759         0.351158998         0.801746984
     0.079413759         0.684492331         0.051746984
     0.079413759         0.684492331         0.301746984
     0.079413759         0.684492331         0.551746984
     0.079413759         0.684492331         0.801746984
     0.579413759         0.017825665         0.051746984
     0.579413759         0.017825665         0.301746984
     0.579413759         0.017825665         0.551746984
     0.579413759         0.017825665         0.801746984
     0.579413759         0.351158998         0.051746984
     0.579413759         0.351158998         0.301746984
     0.579413759         0.351158998         0.551746984
     0.579413759         0.351158998         0.801746984
     0.579413759         0.684492331         0.051746984
     0.579413759         0.684492331         0.301746984
     0.579413759         0.684492331         0.551746984
     0.579413759         0.684492331         0.801746984
     0.483635812         0.204092602         0.177333015
     0.483635812         0.204092602         0.427333015
     0.483635812         0.204092602         0.677333015
     0.483635812         0.204092602         0.927333015
     0.483635812         0.537425935         0.177333015
     0.483635812         0.537425935         0.427333015
     0.483635812         0.537425935         0.677333015
     0.483635812         0.537425935         0.927333015
     0.483635812         0.870759268         0.177333015
     0.483635812         0.870759268         0.427333015
     0.483635812         0.870759268         0.677333015
     0.483635812         0.870759268         0.927333015
     0.983635812         0.204092602         0.177333015
     0.983635812         0.204092602         0.427333015
     0.983635812         0.204092602         0.677333015
     0.983635812         0.204092602         0.927333015
     0.983635812         0.537425935         0.177333015
     0.983635812         0.537425935         0.427333015
     0.983635812         0.537425935         0.677333015
     0.983635812         0.537425935         0.927333015
     0.983635812         0.870759268         0.177333015
     0.983635812         0.870759268         0.427333015
     0.983635812         0.870759268         0.677333015
     0.983635812         0.870759268         0.927333015
     0.126772902         0.086228013         0.236470413
     0.126772902         0.086228013         0.486470413
     0.126772902         0.086228013         0.736470413
     0.126772902         0.086228013         0.986470413
     0.126772902         0.419561346         0.236470413
     0.126772902         0.419561346         0.486470413
     0.126772902         0.419561346         0.736470413
     0.126772902         0.419561346         0.986470413
     0.126772902         0.752894679         0.236470413
     0.126772902         0.752894679         0.486470413
     0.126772902         0.752894679         0.736470413
     0.126772902         0.752894679         0.986470413
     0.626772902         0.086228013         0.236470413
     0.626772902         0.086228013         0.486470413
     0.626772902         0.086228013         0.736470413
     0.626772902         0.086228013         0.986470413
     0.626772902         0.419561346         0.236470413
     0.626772902         0.419561346         0.486470413
     0.626772902         0.419561346         0.736470413
     0.626772902         0.419561346         0.986470413
     0.626772902         0.752894679         0.236470413
     0.626772902         0.752894679         0.486470413
     0.626772902         0.752894679         0.736470413
     0.626772902         0.752894679         0.986470413
     0.213873580         0.074803486         0.165346801
     0.213873580         0.074803486         0.415346801
     0.213873580         0.074803486         0.665346801
     0.213873580         0.074803486         0.915346801
     0.213873580         0.408136820         0.165346801
     0.213873580         0.408136820         0.415346801
     0.213873580         0.408136820         0.665346801
     0.213873580         0.408136820         0.915346801
     0.213873580         0.741470153         0.165346801
     0.213873580         0.741470153         0.415346801
     0.213873580         0.741470153         0.665346801
     0.213873580         0.741470153         0.915346801
     0.713873580         0.074803486         0.165346801
     0.713873580         0.074803486         0.415346801
     0.713873580         0.074803486         0.665346801
     0.713873580         0.074803486         0.915346801
     0.713873580         0.408136820         0.165346801
     0.713873580         0.408136820         0.415346801
     0.713873580         0.408136820         0.665346801
     0.713873580         0.408136820         0.915346801
     0.713873580         0.741470153         0.165346801
     0.713873580         0.741470153         0.415346801
     0.713873580         0.741470153         0.665346801
     0.713873580         0.741470153         0.915346801
     0.347646671         0.319157503         0.237906384
     0.347646671         0.319157503         0.487906384
     0.347646671         0.319157503         0.737906384
     0.347646671         0.319157503         0.987906384
     0.347646671         0.652490837         0.237906384
     0.347646671         0.652490837         0.487906384
     0.347646671         0.652490837         0.737906384
     0.347646671         0.652490837         0.987906384
     0.347646671         0.985824170         0.237906384
     0.347646671         0.985824170         0.487906384
     0.347646671         0.985824170         0.737906384
     0.347646671         0.985824170         0.987906384
     0.847646671         0.319157503         0.237906384
     0.847646671         0.319157503         0.487906384
     0.847646671         0.319157503         0.737906384
     0.847646671         0.319157503         0.987906384
     0.847646671         0.652490837         0.237906384
     0.847646671         0.652490837         0.487906384
     0.847646671         0.652490837         0.737906384
     0.847646671         0.652490837         0.987906384
     0.847646671         0.985824170         0.237906384
     0.847646671         0.985824170         0.487906384
     0.847646671         0.985824170         0.737906384
     0.847646671         0.985824170         0.987906384
     0.350199237         0.154926255         0.043937314
     0.350199237         0.154926255         0.293937314
     0.350199237         0.154926255         0.543937314
     0.350199237         0.154926255         0.793937314
     0.350199237         0.488259588         0.043937314
     0.350199237         0.488259588         0.293937314
     0.350199237         0.488259588         0.543937314
     0.350199237         0.488259588         0.793937314
     0.350199237         0.821592922         0.043937314
     0.350199237         0.821592922         0.293937314
     0.350199237         0.821592922         0.543937314
     0.350199237         0.821592922         0.793937314
     0.850199237         0.154926255         0.043937314
     0.850199237         0.154926255         0.293937314
     0.850199237         0.154926255         0.543937314
     0.850199237         0.154926255         0.793937314
     0.850199237         0.488259588         0.043937314
     0.850199237         0.488259588         0.293937314
     0.850199237         0.488259588         0.543937314
     0.850199237         0.488259588         0.793937314
     0.850199237         0.821592922         0.043937314
     0.850199237         0.821592922         0.293937314
     0.850199237         0.821592922         0.543937314
     0.850199237         0.821592922         0.793937314
     0.466169913         0.086316972         0.236916758
     0.466169913         0.086316972         0.486916758
     0.466169913         0.086316972         0.736916758
     0.466169913         0.086316972         0.986916758
     0.466169913         0.419650305         0.236916758
     0.466169913         0.419650305         0.486916758
     0.466169913         0.419650305         0.736916758
     0.466169913         0.419650305         0.986916758
     0.466169913         0.752983638         0.236916758
     0.466169913         0.752983638         0.486916758
     0.466169913         0.752983638         0.736916758
     0.466169913         0.752983638         0.986916758
     0.966169913         0.086316972         0.236916758
     0.966169913         0.086316972         0.486916758
     0.966169913         0.086316972         0.736916758
     0.966169913         0.086316972         0.986916758
     0.966169913         0.419650305         0.236916758
     0.966169913         0.419650305         0.486916758
     0.966169913         0.419650305         0.736916758
     0.966169913         0.419650305         0.986916758
     0.966169913         0.752983638         0.236916758
     0.966169913         0.752983638         0.486916758
     0.966169913         0.752983638         0.736916758
     0.966169913         0.752983638         0.986916758
     0.341995502         0.034742574         0.110926498
     0.341995502         0.034742574         0.360926498
     0.341995502         0.034742574         0.610926498
     0.341995502         0.034742574         0.860926498
     0.341995502         0.368075907         0.110926498
     0.341995502         0.368075907         0.360926498
     0.341995502         0.368075907         0.610926498
     0.341995502         0.368075907         0.860926498
     0.341995502         0.701409240         0.110926498
     0.341995502         0.701409240         0.360926498
     0.341995502         0.701409240         0.610926498
     0.341995502         0.701409240         0.860926498
     0.841995502         0.034742574         0.110926498
     0.841995502         0.034742574         0.360926498
     0.841995502         0.034742574         0.610926498
     0.841995502         0.034742574         0.860926498
     0.841995502         0.368075907         0.110926498
     0.841995502         0.368075907         0.360926498
     0.841995502         0.368075907         0.610926498
     0.841995502         0.368075907         0.860926498
     0.841995502         0.701409240         0.110926498
     0.841995502         0.701409240         0.360926498
     0.841995502         0.701409240         0.610926498
     0.841995502         0.701409240         0.860926498
     0.092400927         0.134902754         0.113412862
     0.092400927         0.134902754         0.363412862
     0.092400927         0.134902754         0.613412862
     0.092400927         0.134902754         0.863412862
     0.092400927         0.468236087         0.113412862
     0.092400927         0.468236087         0.363412862
     0.092400927         0.468236087         0.613412862
     0.092400927         0.468236087         0.863412862
     0.092400927         0.801569420         0.113412862
     0.092400927         0.801569420         0.363412862
     0.092400927         0.801569420         0.613412862
     0.092400927         0.801569420         0.863412862
     0.592400927         0.134902754         0.113412862
     0.592400927         0.134902754         0.363412862
     0.592400927         0.134902754         0.613412862
     0.592400927         0.134902754         0.863412862
     0.592400927         0.468236087         0.113412862
     0.592400927         0.468236087         0.363412862
     0.592400927         0.468236087         0.613412862
     0.592400927         0.468236087         0.863412862
     0.592400927         0.801569420         0.113412862
     0.592400927         0.801569420         0.363412862
     0.592400927         0.801569420         0.613412862
     0.592400927         0.801569420         0.863412862
     0.218128623         0.187760377         0.237872986
     0.218128623         0.187760377         0.487872986
     0.218128623         0.187760377         0.737872986
     0.218128623         0.187760377         0.987872986
     0.218128623         0.521093711         0.237872986
     0.218128623         0.521093711         0.487872986
     0.218128623         0.521093711         0.737872986
     0.218128623         0.521093711         0.987872986
     0.218128623         0.854427044         0.237872986
     0.218128623         0.854427044         0.487872986
     0.218128623         0.854427044         0.737872986
     0.218128623         0.854427044         0.987872986
     0.718128623         0.187760377         0.237872986
     0.718128623         0.187760377         0.487872986
     0.718128623         0.187760377         0.737872986
     0.718128623         0.187760377         0.987872986
     0.718128623         0.521093711         0.237872986
     0.718128623         0.521093711         0.487872986
     0.718128623         0.521093711         0.737872986
     0.718128623         0.521093711         0.987872986
     0.718128623         0.854427044         0.237872986
     0.718128623         0.854427044         0.487872986
     0.718128623         0.854427044         0.737872986
     0.718128623         0.854427044         0.987872986
     0.465563682         0.253041182         0.051611815
     0.465563682         0.253041182         0.301611815
     0.465563682         0.253041182         0.551611815
     0.465563682         0.253041182         0.801611815
     0.465563682         0.586374515         0.051611815
     0.465563682         0.586374515         0.301611815
     0.465563682         0.586374515         0.551611815
     0.465563682         0.586374515         0.801611815
     0.465563682         0.919707848         0.051611815
     0.465563682         0.919707848         0.301611815
     0.465563682         0.919707848         0.551611815
     0.465563682         0.919707848         0.801611815
     0.965563682         0.253041182         0.051611815
     0.965563682         0.253041182         0.301611815
     0.965563682         0.253041182         0.551611815
     0.965563682         0.253041182         0.801611815
     0.965563682         0.586374515         0.051611815
     0.965563682         0.586374515         0.301611815
     0.965563682         0.586374515         0.551611815
     0.965563682         0.586374515         0.801611815
     0.965563682         0.919707848         0.051611815
     0.965563682         0.919707848         0.301611815
     0.965563682         0.919707848         0.551611815
     0.965563682         0.919707848         0.801611815
     0.092566318         0.302161290         0.176505651
     0.092566318         0.302161290         0.426505651
     0.092566318         0.302161290         0.676505651
     0.092566318         0.302161290         0.926505651
     0.092566318         0.635494624         0.176505651
     0.092566318         0.635494624         0.426505651
     0.092566318         0.635494624         0.676505651
     0.092566318         0.635494624         0.926505651
     0.092566318         0.968827957         0.176505651
     0.092566318         0.968827957         0.426505651
     0.092566318         0.968827957         0.676505651
     0.092566318         0.968827957         0.926505651
     0.592566318         0.302161290         0.176505651
     0.592566318         0.302161290         0.426505651
     0.592566318         0.302161290         0.676505651
     0.592566318         0.302161290         0.926505651
     0.592566318         0.635494624         0.176505651
     0.592566318         0.635494624         0.426505651
     0.592566318         0.635494624         0.676505651
     0.592566318         0.635494624         0.926505651
     0.592566318         0.968827957         0.176505651
     0.592566318         0.968827957         0.426505651
     0.592566318         0.968827957         0.676505651
     0.592566318         0.968827957         0.926505651
