POSCAR file written by OVITO Basic 3.10.6
1
34.4787952533 0.0 0.0
0.0 23.7978917727 0.0
0.0 0.0 44.6337895192
Fe B 
864 3456 
Cartesian
4.6423085291 7.3403569915 2.7583332166
2.8862872812 7.505543232 6.2520932762
4.1382191394 2.6575876692 0.2182362597
7.3115905635 4.7775140595 1.5824483499
2.8931038122 1.035019056 4.1210728343
4.7005182038 0.056650818 0.6172818031
6.2011380828 2.499341332 6.1473336557
0.5515876793 0.9398053468 3.7634239149
6.7584093136 7.2962650731 4.8704136287
5.0649349595 7.4508046703 7.128204793
9.7063102795 7.6483089277 0.9857809683
10.7244416323 4.233066501 6.129245692
9.0242288076 1.4592917367 2.877854921
12.9443788268 6.7619176894 1.2595856112
16.9234206114 2.6974216887 0.275735429
10.2253009074 5.3745665316 1.8050550556
10.9238114824 1.4319591093 1.0870301834
8.7317784693 2.5161963243 4.8064635396
12.8951859637 7.094256098 3.7454975581
13.3472851201 1.1184212596 1.7893071626
13.973857991 4.3213441045 0.4430685836
15.5287692646 1.5846306258 2.5867065993
13.0413938109 4.6442435349 6.5923111193
15.8243533853 7.0605003792 2.4036028415
23.1138388311 0.1089685234 4.544886973
19.4744256155 2.7530652224 1.9844678175
23.1882566623 5.5266007722 3.260915482
24.9252586963 7.040863294 5.0872479008
25.7121142473 6.5955649507 0.1194110109
19.3071693722 5.2012328007 1.5408311749
17.3316734139 1.2521617436 5.2011729996
21.5423181007 0.833780934 1.1479264938
20.045733966 7.0270992305 0.5525359765
22.7567508432 4.2277673575 0.2913104762
25.5136450472 3.0001645776 3.0797291203
26.2215882032 0.0614285133 4.1603304635
26.6687277942 3.9639516564 0.8393954035
33.1081690998 5.0276379871 1.4041925808
29.9034422159 4.9378338633 2.0906323489
25.8610263931 5.1044047101 6.5421136508
27.2366400391 5.9719151751 4.2927278971
31.7719780622 3.233301556 2.9860903013
27.8931634129 0.6373706852 6.7500826178
26.9653798917 2.0072766215 4.6830978362
6.5442570338 13.6580674991 2.3709446886
0.0229611117 11.2941590904 2.3399318493
2.4906392558 9.5505971588 5.0400520333
4.1561233068 13.8668278663 5.6660825114
2.2244513616 8.2107645488 2.7597855873
5.8988552088 11.7812679409 5.8213183688
6.0282264457 15.4983099681 4.8179873983
3.8062986978 8.4889122269 0.7332080264
1.2278655717 15.6657302212 1.5507008875
2.3816670637 10.4988638995 1.4962413902
2.7363610951 14.0228397568 3.3597468697
5.8806886756 11.2766509381 3.1617043168
8.5472246295 12.0066099652 6.1367117655
17.1233702761 8.2076764578 4.7844886689
12.1421671235 8.9195538543 7.0509698996
9.9928897979 9.6429449138 5.0274486807
15.557746698 15.6164212976 5.6005922722
10.6097480408 12.6505125861 2.6586369239
12.5931929122 13.94212516 1.9855619324
11.3196976691 15.6497932358 6.2514850452
13.6689575749 13.9543730176 4.9843320417
11.653136674 8.8695189029 2.0302124429
13.8433862465 10.2461374245 3.0444133419
14.0700333607 8.8205952922 5.81697757
23.1274259986 15.0861501955 0.1227765862
22.0273976651 9.0960944202 1.4624920588
18.9783457093 15.5332205703 2.9365592989
19.0201529289 9.5959199083 3.5079288297
20.7887939336 12.1036837441 2.2878442932
25.6730266465 8.2926978921 7.0528165267
17.4689856102 11.9140312931 0.4705721753
17.2914878052 10.8503473659 4.1803480327
21.7991322723 9.242541069 7.055836952
22.8804549254 14.3356829326 4.4066286821
25.5660054331 14.4365093191 5.0192226928
24.7915643145 10.6828275577 3.8706651391
17.9470487034 11.2764202874 6.7055788261
19.0622947648 12.9500782332 3.8128020403
29.8994386055 15.7062527283 0.5107220554
27.8295697205 12.4185367367 5.3186665531
32.7367410364 13.395168885 1.2203086915
34.2817002696 8.9898991754 0.9948408999
27.3250162456 12.5281522846 1.5955027675
26.4200335731 11.8035909916 7.3628934448
31.8930765522 9.2975057919 2.1016733031
30.0331255953 12.6963367378 5.7250533189
30.9457437911 8.1576617912 4.5164619027
27.643022896 15.2395156814 1.7757417696
30.1673418693 10.916392154 2.0851107992
28.2069531872 9.0338671612 2.5344304524
28.2005888238 14.9780784086 5.5856588041
0.4111550702 19.7913201974 6.6352017777
8.0622660525 15.8675092154 2.3722804847
7.0139180429 23.6645747207 6.2511205581
1.7360507232 21.0777754571 3.476180457
7.6078166699 21.5211683685 2.8605438758
2.0473474453 21.5986887371 6.1715682507
4.1880647621 16.7287685278 3.7791033099
5.6077259105 19.9748595176 2.393783346
6.1071003437 20.3032279355 4.8891829841
8.4016306067 19.4408605556 1.6763722866
3.9030740002 23.3957742537 6.0842241936
8.9825537475 20.4366406363 5.2755169984
17.0006328064 19.2358180214 0.2695051327
12.2050916389 17.3354190996 0.0994717723
10.3584120338 16.936947432 4.0073103395
13.1789607775 16.4575024193 4.8646409002
12.1849709019 18.874777542 3.4081445797
14.7995362158 20.8226178606 3.3942907402
11.9963182153 21.2346840895 2.4826583923
15.2583638629 20.3947444491 5.4092899914
12.1254454865 18.1892776847 6.0049111544
13.668277202 22.6546593734 6.5627379583
20.8812087933 22.7537156607 4.8105495442
20.1182939855 17.5952096068 3.1258493209
19.8079793764 22.7675008534 1.1404958736
20.9887984754 18.9190567551 0.5710397449
21.5488103526 16.3613923731 4.6522719229
23.0521771846 19.749888115 5.6006761229
17.7988589793 18.9135039336 2.5387834469
18.4589657353 17.023897681 6.6565132361
21.4725574147 21.6128411676 2.6503093687
24.5106848462 16.4998971623 4.2480873775
25.2839658188 18.6779420354 5.4913525628
19.5135775029 20.0627301355 4.6892823538
24.871523178 21.8240631392 5.3193095909
22.9939064547 18.2835393118 3.8317076934
21.1353221467 16.5421454834 7.4111319308
27.8037569685 19.8367437778 1.9088521983
29.9613678691 21.1950587155 1.7485733834
34.1282001911 19.8654308406 2.0157233744
30.0589675455 23.6611443347 0.4691682864
29.8163031985 22.427836539 7.2693221084
27.9103128561 20.2741115994 6.6059890824
33.2290937514 17.1468115607 5.9008101763
32.255299576 19.6240386898 5.6326359
29.5448322256 23.6359103448 4.698293836
29.7424286388 19.1673241072 5.2380360931
26.0557384402 20.2892349526 3.9420553516
6.9959413607 1.9300805259 8.4013933778
4.5697673311 1.0499069982 12.4295631137
8.4758587751 4.9094174148 8.3768203485
8.3344062262 0.5173456512 11.860974416
2.4110438042 5.7121801754 9.352876834
3.5538990838 7.1057052747 14.7171627701
4.3597640134 7.1839566968 10.8763950535
0.5223088029 0.2857077541 8.7669010676
6.8860774619 5.40419698 12.1259785097
5.880940988 3.2009089026 10.1922033351
13.7879688666 7.3119059849 11.6680169348
10.6875599449 5.1185493539 12.0787867444
15.5230921238 2.0164998036 11.7278958168
15.2054486051 1.7428714973 8.5100909578
15.6597459442 4.9418212009 12.0942241668
8.7381491152 6.8943785148 12.8554893716
13.2938084004 1.900917241 9.7392487768
14.3541099672 5.8355928945 8.8331213535
16.7780325361 0.7502864099 13.9915210874
10.5343908982 0.7235471823 7.6793771912
9.4631586304 3.6514491447 14.2577643606
14.5551434322 7.1429159325 14.6554890865
18.0149431635 6.0564819161 9.5611498812
24.3726917835 0.5070279161 14.5943445005
22.9027022888 5.9489312329 8.6130440207
22.6714533613 7.3021016557 11.2939109685
20.8989734039 4.2237335817 10.8945768088
17.9448240753 0.6282835165 7.5523803494
17.7748477941 3.4959929148 9.0739735387
19.8276081464 2.106682079 9.7687720976
22.0682820045 1.2091189322 8.3185426288
18.3384266433 7.9193296905 14.6436243474
25.6728523461 3.2888990695 9.8450437909
21.1107787457 0.1594378134 14.07520278
22.0862117577 4.7861962127 14.8051819832
20.9493085464 3.6149753326 7.8990886669
18.92075251 5.3090051911 12.4424716423
23.5969033059 3.7004973074 11.4675753998
19.8132158583 5.8361894538 14.8281745901
21.030218215 0.7590330026 11.5197528727
30.3583296325 6.3200871235 13.5741266064
26.180317307 6.1908115069 10.110572318
30.1961562366 2.2073849724 13.2646074879
30.4544412296 2.454041974 9.6750822019
28.5022835932 5.1960473771 11.6125290551
26.383981903 0.8463103491 14.0956482362
26.6638975764 0.9935670502 8.9091634917
29.2619977465 0.7265346376 11.8228507252
29.5150806695 6.301855792 9.5533185092
32.902032161 3.3301844936 9.1086881415
33.4893385575 5.445642298 13.3591425215
32.1773198351 1.0330295081 14.6507214135
29.9700832434 7.664548301 11.5840697931
0.8974830006 14.3791959903 8.1260314256
8.3384043367 11.9006320255 8.8743517085
0.715577438 12.3011412327 11.7696174544
1.5069407011 9.3392594854 9.439641989
2.5909311242 14.8372928476 10.7994072249
4.7165176864 12.1705825206 12.9050444834
3.0283295385 13.5752437784 8.7627667664
7.6682753281 14.4942177107 13.9218542469
0.4407616531 15.7145712422 11.9513298765
1.645743367 9.960773908 12.6410385174
5.8919739901 9.083191975 10.7633848428
0.2763275049 9.3887852186 14.7702567646
4.9964678166 13.2699691358 10.594554163
12.6856605502 11.0226806892 10.6511637911
10.6622795773 11.4669377897 7.5181839868
9.7046548535 13.8086128333 12.5777143706
9.6832657314 10.4485948949 10.6073586975
11.9647578047 15.5635004883 11.2712882403
12.7089929578 9.2028004478 14.0378813179
14.1775027585 12.8306536089 7.509494229
15.5107730493 9.0112553958 12.9739150059
10.9261595383 12.206243491 14.2539818429
9.7925021449 9.0023239607 8.4747085017
11.0071134535 10.2056753111 12.7405867133
11.1128482777 8.3971548389 10.1534280321
8.8965984158 14.2368065055 9.1412392275
15.706595302 10.7046643075 11.2379824532
13.4739402319 11.5222418923 13.3269868366
8.8691311926 10.288446761 14.6753753142
13.8571056115 10.0099076415 8.2688175995
17.2215855347 13.6947542205 10.7220058036
16.6951573475 11.5415155171 13.9871902672
17.9105114733 14.5359128206 8.413787987
24.9230756822 8.7752500725 10.6820940049
24.6779419625 9.9202219915 8.0446419779
21.0892568869 12.3228438441 13.9522818532
23.714500872 14.5129372155 10.4756039113
20.1838252989 11.7675223653 10.08755115
24.0980827055 11.2643313444 11.6397949825
18.8574859615 10.8060746002 11.9598798788
18.8800376252 14.7819873201 12.2940329265
25.0375766998 13.8154428419 14.8669224221
34.0223826297 15.4109654618 14.7095861865
27.8474378563 8.03838839 8.6180956599
33.5141633006 8.5457002459 12.8879206649
27.4426947894 14.585814042 9.972610889
28.4760921606 12.502616158 12.8804839284
27.8270877626 8.4381666887 12.7201665678
30.8703886602 13.2670339973 8.1030625277
26.1053106558 11.2680152678 9.8802175961
34.1838802624 8.8643054007 8.3640333691
32.6787149719 10.8012606679 11.4865725263
26.7446765593 10.3443198386 14.1924091734
33.7316253938 15.5369235637 9.4434700515
30.4431616985 13.3752971859 12.2351858864
5.3738886236 19.4140885575 7.5528601041
2.2014656211 22.8891488804 14.7468572589
7.1683145547 20.3950189466 12.2041676411
4.5049702875 20.9334875619 11.700475781
2.1053377511 20.9242685915 12.9413321086
5.7566450558 17.6559771163 10.827367244
2.8480765215 17.1482798207 9.4019468043
3.215998139 18.625309621 11.9609517039
2.8875492961 23.0818682849 9.9801544328
7.8888368916 19.0837498929 8.6630246999
5.3443401798 22.2086641159 8.2127330274
1.7262600308 23.5375544721 12.7141145728
7.4307896384 18.827580886 13.8254464127
5.9173283326 22.6676911067 12.7128303013
8.1961110915 16.4832321857 10.5106459507
1.4958747425 19.2461148282 8.5941531779
0.7191633156 16.6897699215 7.4998127164
8.7698903608 16.4644641198 7.8339128661
9.6528926796 21.1635634691 11.5665389015
10.383786826 17.2005492335 14.5921998174
12.7635616391 23.4084362185 9.7881004747
10.9773637337 23.3729224357 11.9692019559
14.9374724413 22.9816209036 14.4166324002
15.8100288973 21.6520375705 7.5898754661
15.3728045697 22.395192345 10.4834409008
9.0460454278 21.4826142264 8.7982216869
14.1583773811 18.37051698 10.2825562065
11.6288855742 18.136344996 9.5666743469
12.8294419826 22.1709100809 13.1873704238
10.3244694723 18.8362854603 7.6607047752
17.7248039963 18.0265324847 10.3552612283
18.9392574411 23.1870205057 10.0368779087
24.5166725346 17.9665117973 11.1182993813
18.345063939 19.9588035746 14.2693736247
23.4833228962 18.3470552428 7.4452653057
19.7620499564 18.0724964615 8.0897332031
21.6263234374 17.6696239283 11.2893757559
25.131624349 22.8297514751 8.3859254727
25.5473482674 16.9446398013 8.0921376294
23.5759415119 21.1870861408 12.2743197327
24.3629122454 17.3743279938 13.2284136823
31.8521103572 23.0162404065 11.9143817197
29.1077153667 17.6391976609 8.3038320067
34.3055178333 19.9224054191 13.6170543032
31.2650172163 20.289947438 8.2444984768
26.7243964481 17.3048240776 10.1871942517
30.1002790242 22.2597512893 13.4704294877
29.5090863269 18.6748461057 12.2643127581
26.4585859666 20.059761605 12.3491424834
33.4591550503 21.9244418334 8.6609209201
30.3583016685 19.9726493054 14.100747035
3.3613949188 0.6993669993 19.9891078511
3.0628352555 4.207977023 21.493688614
7.5129233613 4.1179780423 22.2736201726
6.8803283767 7.1101997357 21.1924223431
1.5375081747 3.6400166334 17.8694277084
1.5829208393 7.5218585644 20.8292606148
3.0415128841 0.99958198 17.901820629
2.7704241812 5.650249438 18.0982257463
1.3825333855 3.5017629421 15.2453766048
5.2332683144 2.5696937868 19.150511213
7.6135635422 0.5022576516 21.0688269361
4.2334933156 7.0476458903 21.148975521
6.0796665911 1.9712171406 22.0181437763
5.8392513505 6.2025878494 15.5169937078
2.9181673611 7.6958443276 18.8390495689
9.2602460403 3.4507450254 18.6637831847
11.3243952368 3.9466521102 20.4089870858
10.1251443749 1.228174487 21.8015715863
13.9239679643 6.9397845552 21.2963759237
11.271421151 7.4384360649 22.1265169625
13.6013647514 4.1015797383 22.1146405073
10.1272960154 1.120117977 17.501595166
16.9289701431 5.9267356114 15.5870181581
9.5455926676 7.3289232218 16.5340499417
10.8864192082 5.3467186701 18.6857528486
15.7690394799 6.5557103451 17.5634061298
13.9246078069 5.7773951921 18.7341436378
13.4622119937 3.5546305852 17.1170904934
16.5568046112 7.8441165477 21.0096079783
17.408567756 2.9119673576 17.7805769648
17.2863256545 3.1452518468 20.3142691523
22.8216873232 4.3017670926 21.4691949258
25.0535084441 1.7724137709 16.5425750944
24.4304644557 4.0126400715 15.5904324321
18.9586170139 6.223290136 18.7742808346
20.6449892098 5.2275449448 20.4551722696
24.6948773452 6.8880181747 15.4230843854
22.4896720967 7.1894389326 14.8804492262
34.3251332757 2.5006365942 19.6467920546
33.7808174594 1.9890914225 16.5478737729
26.0240551627 5.9337227619 20.0584854487
33.0640395299 6.1159116411 15.8608686383
31.8920131225 3.4824906416 16.7669419405
30.5844135998 4.1053243303 18.9333917237
27.7560734833 0.2356622621 17.0236261966
27.136830536 6.7679080181 16.0271450295
32.590752272 2.4742143456 22.1690913371
31.7764594292 6.0824105255 20.4597349862
29.2569117368 2.4763985907 16.9699875673
6.7762199686 9.5911737088 18.4266628561
3.1648977293 10.2731759122 14.9546545352
3.6685522269 9.2199575842 21.499582105
2.77998083 15.0429997404 15.2860791827
6.3249468249 11.971929301 17.6054570892
2.5900814013 12.6207458201 15.6871860771
6.3801092798 13.1746327337 15.1453641079
7.0038317192 13.5689164631 20.3343162282
0.7562922382 8.5253183824 18.649427094
4.2476945021 14.8906594067 18.2569284782
3.0624126032 12.6872863918 18.2976147164
9.5470872807 11.5094888785 21.6810823925
15.9097348163 13.0037260626 17.0781382276
14.0540605643 8.1736235329 17.9530795661
12.2468568954 11.8870889175 20.6249320358
12.3969175426 15.8083156124 15.1034031201
13.2759058654 10.192797206 19.2353781403
16.6804023314 8.3998579062 18.5963910125
11.4411448524 12.6513645285 18.4444637147
24.5572512358 11.7348794634 19.0267139686
17.8802602635 14.7735633668 20.2883040146
22.0524789304 11.0214739001 15.6150110912
25.5463105968 8.8659983511 22.1057221781
18.5734303991 14.4972074541 16.2233865895
19.5004324613 10.6405865634 21.5975177329
25.2073866985 9.1354600464 19.5668766899
21.59068013 9.8127811472 20.8776544464
24.4527900821 12.2681205095 16.7828922625
18.0572979495 12.3404784783 20.2919137695
34.1784679764 11.3539674401 19.4657614387
30.0221981971 10.6140191995 19.1458718501
28.8288215286 13.6165624809 14.8998649116
30.3523417873 12.9343520097 18.0056084785
33.2575955013 15.2891045766 18.5547630332
29.425433571 10.4204635575 15.2075656166
28.0797498955 11.2012116261 17.1752094683
26.6082096105 13.6834734277 16.7773413294
27.4721304428 8.2627345671 19.3168995132
28.5683165778 14.7479348333 17.7799138725
29.7728119802 8.0088852162 19.0460098296
27.4007714522 13.641116399 21.7821602808
8.2251150221 18.2692914243 15.9146353563
3.6439205968 16.1960155851 20.6243356736
4.7146035653 16.5810628294 15.1211210462
8.2477594996 17.3373215503 19.7779958846
4.4455198117 17.8427902615 17.5786805916
5.573159735 22.9727499171 15.3847515668
0.9562413103 16.5898206 16.2237355933
2.3745605709 21.3528630604 16.8832479195
7.6417431837 20.8313445293 17.4675316095
5.5477034589 21.8458134162 17.8804107011
0.6562586257 21.104726624 19.2024522799
1.05725526 18.0213411292 19.0969974895
0.935650277 19.1827151469 15.9459306323
5.0226593196 23.519849115 21.5874356877
5.8573547594 19.5890533277 19.146860858
5.2262036974 20.1058092373 15.4978144529
11.8507463743 17.3670928416 22.1712273817
15.4005253118 21.6735315688 19.9119534364
11.8598433081 23.3873990309 21.6277484929
10.6330106463 16.0346393231 20.7246110817
15.0956834795 16.5481733301 15.0196756103
16.9032710018 23.3047426399 18.3413377771
12.4189957253 21.6533675257 17.9159863082
10.8773129348 22.1123770524 15.1491627666
8.8497376996 22.6276319528 18.6067420092
16.2729307631 20.2099590439 17.7742207642
8.910668691 19.9207990815 19.5201856492
15.8079312078 18.8455695084 20.4434496687
8.7082300833 23.3253799179 15.0178792841
14.4262636559 23.6609563256 18.4456742009
11.5516018229 19.0278191612 18.3618008251
14.1723099974 20.2912333262 16.2807041076
15.889180675 16.8735062351 17.7330556859
21.0947199886 19.9205445554 22.1833814176
22.3173709775 16.8108097272 21.8218449493
22.7614877928 22.3201383672 20.8541810791
23.4394123122 20.6340389437 17.6331566131
20.824700965 20.3911732289 19.6498448732
20.0479610334 22.7462520451 19.6867428583
24.9735547677 16.4158469235 16.6978770583
21.801580235 18.7935118727 17.9774956888
24.7950569731 18.5778545379 18.5988321668
22.4918124583 20.9649534057 15.1439199911
18.6065315693 20.9239219176 21.5139081068
34.0374610024 23.3429398586 18.6061296379
32.3879655728 16.0785224723 16.6579992797
29.5202629515 15.8685782674 19.7332277799
32.4208629975 17.0443931403 22.1862102629
28.9959867598 23.1398488722 20.456616974
29.5770099437 22.2705274689 16.1360884824
34.4440787371 23.0038023708 16.3927575895
33.3768816062 19.6521811323 17.6539688229
31.6063559638 18.697892469 19.7769141103
31.3117088688 21.7405899081 20.2642084344
25.9626184903 21.0839658168 16.9079069019
30.0538737065 18.7464896767 22.0360665836
3.0418975062 0.5602556608 24.5766853564
2.4982689271 2.6837288866 25.7604358231
0.6998317301 4.734125225 24.288952449
0.949518094 7.6039580041 27.8574073878
4.21572389 1.6420418332 29.0463082717
7.7657951787 0.1270904437 28.1921687974
4.2396369014 4.7215406474 29.5373282645
6.0620789534 0.9390982874 26.939641687
4.8694266398 3.3842610105 27.5423922086
2.4013557611 5.8325046219 28.6746072482
5.7591107736 6.9820519453 27.4834603234
3.5473333927 6.8121471277 26.3609437451
7.2630580258 4.3884424948 24.8952374531
9.4133556618 6.9576976326 29.5876015125
17.1180070902 0.5119108327 29.3147467538
13.0735557502 0.9149141419 23.1599047267
15.4773845027 3.4430209479 23.1782247393
14.7946407091 2.8937575395 26.9022522357
10.4069435439 6.5101644977 27.2528478327
11.9978052096 2.2436935242 27.3579715962
17.1101604894 7.6745131668 27.5758815599
13.3625012229 4.3982621793 28.659735446
14.0539771348 5.2873790589 24.1901218875
19.9294970612 0.1145968211 23.3535176435
20.2301436112 6.5574297402 27.4585238103
23.4872541602 7.8268436998 22.6907212045
20.2791082726 6.6015868414 22.6648169328
25.7962181325 2.9122720795 23.7315780316
19.6329209829 1.0471999899 25.8003384067
25.715819289 0.0286395508 28.7647388406
23.0147961573 2.4225072873 29.1214927844
24.5626846519 6.1113945462 27.788875433
23.9170951299 1.5113542536 25.6993246951
22.4321714919 7.3500310725 28.4516270982
17.6770990104 4.8036919195 25.5592785008
17.7829161641 3.9599683484 27.8940614154
18.2764608295 3.998150559 23.2098062066
26.8172815501 4.9209865502 22.3656199891
30.053000666 5.5355190266 24.3296521113
33.9043492615 6.0501712582 22.4693254541
33.7409564966 5.5992490707 29.4317520947
29.0708555032 5.019885219 26.7428258709
31.3466136055 0.6308774241 29.4959508969
33.0036430562 4.0425738462 25.8023869882
29.7824154008 2.6465750048 23.8150619389
32.6039306133 1.7577714493 24.1952370678
30.5779817461 7.5685408996 28.4978142809
0.6068316538 14.0972516737 22.3434353356
2.2666374296 13.6797287976 29.6317281101
7.3368500222 10.1792212682 26.7268834156
1.8764885187 9.073444306 23.381625206
4.8250458703 9.3997208486 26.6191481126
8.0724452414 8.2574936856 24.6251513759
0.937243387 8.474500325 25.3980534965
4.0932025292 8.550400567 24.0704075492
5.4276091612 12.1328672988 26.3379054271
3.3304890921 11.6126495695 24.5262805298
8.3369152637 12.2659318521 25.4406962277
15.7066369905 14.466753878 23.8793380067
9.4968823395 15.5626025144 24.1033992345
13.7165596113 9.9863865541 23.8091767084
10.3107272926 9.1393974406 27.891117803
11.6146060167 10.6423800269 26.9560623737
10.2958667044 9.6163621202 25.1424026784
14.2896499362 10.2907563471 28.4351348207
11.3139809441 9.9066353813 22.85522575
12.9729273591 12.1941448632 24.4754885751
13.0472910026 13.6666423917 28.2850089702
15.3040864742 8.0531901937 25.2643818986
20.6072866622 10.520449723 25.2024626737
17.7185242565 12.8870358245 24.2520682935
24.0095657574 14.0978491951 28.2362644258
18.2477419556 8.9414445262 29.431554112
17.5608977746 15.7242161419 27.0900681992
18.9356072836 14.7056310803 29.3163113278
25.718818178 15.8231880864 23.5811310247
22.8306519217 12.7716470705 23.1005069075
23.0111391577 11.4387642598 28.4980553259
20.9180466368 13.270176119 28.139569261
29.8851157511 14.0314268428 22.992833586
31.9808858609 8.3290943769 26.4487713039
29.7005212723 12.7054195514 28.1702910135
27.2161866092 11.5581728536 23.4197409736
30.3638531152 9.6787452182 22.9250677747
26.9162045833 14.7091162314 25.4655327421
34.3346792833 13.161782356 26.795874065
26.84199112 8.0283916585 28.5233727187
33.2415218282 12.375776816 28.5622535745
3.5410094426 18.3169143272 28.4896461982
0.7281879895 17.899079772 23.0401131954
6.6805048876 18.6688016031 24.5261941222
3.5674988598 21.1282621829 24.4632144982
8.5293352296 21.9676582938 24.4374240258
5.3617137738 23.1365099633 29.4233004575
5.6284553485 20.7415259873 22.7761628773
4.7889505044 19.2887483902 26.4856796559
2.9714890131 16.8818151927 23.6451885809
7.6635895937 19.0398005149 29.0987518435
5.6317022505 22.4916282212 25.6296954986
11.1239480878 17.1157668191 26.7805431255
11.4076067164 21.5932232094 27.9662525658
13.5624453969 20.8724220723 26.5127674605
8.9818674638 16.6344489711 26.4836927789
9.1270008845 19.5819634419 25.0036266038
9.9547971455 22.057954738 22.5967681914
10.314436441 18.973122676 28.5224621594
16.442578757 22.7696777268 24.0932546625
12.7473285607 21.2083929957 23.1835703206
12.9554287617 16.8048243094 24.969375115
12.6544496989 23.0305935225 29.6055426083
15.0636674359 16.9630263875 27.3482425967
9.010046106 21.3725095567 28.3475244672
17.7992152639 19.7940707143 27.1094233665
23.5409349753 23.2118966923 27.8712584945
23.6520064843 16.1674712589 26.9722856643
22.4072919651 18.372959263 26.4752392808
19.649303007 18.6948450123 24.2739724988
20.8589944615 22.1517819628 28.5480419049
25.0759738181 18.4140830601 26.3912337226
21.528783621 21.4465858977 26.0526183654
22.2916061365 16.7560304707 29.3157461017
17.9972398026 20.6516793648 25.1967290874
33.8606834126 23.3594592358 22.8332676582
33.9227208646 16.3820940396 25.2446592924
31.5377360363 19.6991329904 27.5965770849
33.4866130609 18.8455715917 26.1818886356
28.1583768729 16.9205471375 24.5315899318
30.2543858594 23.1984400432 22.6801148803
29.9543672844 19.4465453266 24.6264155367
34.1036433325 17.6764213938 28.5869586284
28.1525493034 20.22776055 26.4477077002
31.920320939 22.737280205 24.4105969888
26.9215080765 19.0129466951 29.638411829
26.0332965053 18.2547768919 22.7546539464
34.1497918371 22.4568347576 25.79782518
32.2153745739 15.9728319166 27.6164721236
31.3271647871 21.0605498758 22.7932412071
27.4134760108 22.7335255105 25.6257202658
8.6193162464 7.3402087549 32.3524940116
6.461565926 6.5202798022 31.0197612933
2.8465486828 3.1920220699 33.4550095887
1.1928778203 1.6984167554 31.87563509
0.4497403482 7.4016777875 34.1506253886
4.4286131173 7.9120676688 33.1361796701
6.307490268 2.1821868114 32.7662832905
5.2629708802 0.6116099621 35.4101954307
4.3630004008 5.4135734451 33.0230002006
8.054820351 2.5130965859 30.25596601
3.5079800082 4.5128304804 36.3850891935
16.58551213 5.8743593899 32.6861964863
10.4924881804 7.8907832758 33.754152062
8.6235055385 4.9498671328 30.9947309116
15.8170865805 5.6029711222 30.0292211038
15.1098453477 3.0880011784 30.8804011261
10.2077194005 1.6029840434 32.2458581986
12.2286659149 7.5052200334 35.8101736477
12.0012980855 3.5784217113 31.0564424334
9.6218204007 3.2307450107 34.3052158018
12.2898128712 5.7521949166 32.5944527797
13.7497696673 6.5386936211 30.6995304149
15.3917054744 6.6742967585 36.2232212313
14.0354520556 0.5970105086 34.2637393242
9.4587836054 1.0896829467 35.4589551068
18.9703998542 3.1009254432 35.9599318946
20.3577954331 7.2534116921 36.1987671312
17.3129501826 3.3581442533 32.869983621
18.9813928405 6.3674592622 33.6373497177
20.6226615108 3.8504864061 34.214273589
22.0673478111 4.307107001 31.930804423
22.9695304102 0.7628118878 32.9003936779
21.8486874735 0.0043609319 35.0348193609
23.9575787618 4.8622044363 34.0283616958
17.7700738051 4.198433259 30.5460488119
18.7656926863 0.890285548 35.3205538127
29.8650173701 4.9502812595 30.5186117822
28.5980405962 5.1016408153 32.6932225517
29.6326689696 0.8096985226 35.2516095493
33.1558289844 4.7291178447 34.2977739693
30.1980060743 2.8144494734 32.1667439086
26.5736806972 3.9617357695 30.8724909249
31.7529190721 6.613691423 33.8204658407
26.2856856241 3.1481044938 35.1036606387
29.7279080285 4.3137810513 36.5387657021
28.2741185763 6.8822940576 35.5149165821
34.0265151072 7.5772440683 31.5430278428
32.3131582198 3.4133157908 36.7852656917
2.4011932081 10.0861571265 36.236729057
6.225748071 12.1214723879 35.1340123429
7.3616320624 11.4237199296 32.5296195695
0.5874364436 12.7990381665 31.5950330494
3.4059124436 15.6837220893 32.7529645762
2.7899045603 9.4300475238 29.8147659677
2.7009315129 13.1508073904 33.7670835445
2.5362750319 12.7643764357 37.1717339651
4.4579606138 8.6181896124 35.5545648887
8.0224954074 10.3368999669 36.1581516547
9.777970437 10.8185010932 31.1450652108
13.0634714328 10.8619309153 33.1327521992
14.2924675453 13.050930447 35.8947801609
11.9490545021 10.3354900892 37.0793332741
16.9616176307 10.7383029523 36.8749176701
8.9098923559 11.1358730444 33.9697130228
9.1186607836 14.1997798308 34.0747582057
16.3804880236 14.1786457802 34.5922361241
8.9264442587 15.1758143363 31.6585927381
11.1027714913 14.808367772 36.45912053
11.1776727218 11.3804371439 34.8938098232
15.8807080666 12.517788476 30.3498283716
13.9823432703 9.4504766601 30.8266668734
16.8639387807 15.4114372576 31.0070155056
15.5782969104 12.1297453021 33.0919039468
12.8860943616 15.8316584548 34.688445227
16.3644124631 10.1194793078 31.24087686
22.8434082799 13.2182024107 30.1460204656
25.3264931093 13.4605918186 30.9183154966
20.7755482862 15.6144724762 31.4508255952
18.6105153239 13.622523243 36.4999357984
24.0489545365 11.6451083342 31.1968002927
21.8322817764 8.5501369241 32.1830592092
22.4586308076 15.4864451967 35.3284451563
20.1247611483 11.325258143 35.3005411852
21.9016660276 12.6151117237 32.2684535874
23.8855084571 9.8004444839 35.6935127162
19.3182982159 11.8376745496 30.4647602704
34.4411954299 14.2426708472 34.4271054569
27.5660386839 12.9877539803 35.7300539367
29.6910332302 11.9850015963 31.7877430813
31.0560689424 8.1108566909 31.8853162338
28.6381769822 14.3621282097 31.0088598275
27.1892123619 11.9280676611 32.3725454976
26.069060251 14.5556673591 34.5761251883
28.1429830345 9.0789397775 34.3199018309
32.2586642658 14.3852925457 29.8793041462
31.5347203578 12.2490270917 29.9824296979
30.2779788464 15.1444031145 35.1191655857
7.1543674539 22.6730980631 31.0192944769
0.5480234194 19.720358648 35.0137593961
4.5789036962 18.5127394394 33.2895527719
4.934878972 16.2431577075 34.2660867909
6.8901920759 18.7046619663 33.7212179357
2.1693518501 23.3562472785 35.0333766794
0.409268609 19.4274474226 30.255448437
5.9249394417 20.7254849981 30.5120192305
4.8083181833 23.3162897673 33.5487744134
0.1343519227 22.5006240768 36.1318808468
3.8942081568 21.4076927954 32.2684399146
2.178989439 18.3679931743 32.1585790242
7.8296835174 20.5367858559 35.4981980681
8.4344343043 18.3508014728 35.6195599291
13.3239344503 15.910204143 30.5691155615
17.1633459268 18.7287630134 32.8654226908
9.2600195558 21.3834369896 33.7887909641
16.2326641166 21.7900840799 32.366587236
15.4636440509 16.5761053986 32.632453185
12.1082229609 18.3074616874 31.7013538602
11.918885703 20.4739994506 33.1272556576
9.2988732466 17.4524360356 30.3743286018
10.8853446625 18.9840504023 36.3781837284
16.4898957574 16.8378528418 35.0593377297
12.9079314568 18.7022965925 34.1372965474
15.4304623701 21.635268846 34.7204935978
19.7668485399 23.0476088343 32.171915733
17.8469669664 18.9693885219 30.3195194783
24.3821218849 18.3014739439 32.7623858899
19.6588537126 21.1570993139 30.6851525236
25.4461582157 20.8918007681 35.9517331456
20.281527339 21.2756542732 35.4333036996
17.8919558664 22.2229779703 34.6924668435
22.172858716 19.0385533012 32.6866006266
18.35931726 22.3989135486 36.760294962
24.2203324309 16.9571803416 30.9030106452
25.1574641039 20.4031277603 30.5560423639
20.1022732058 18.5919147911 34.8614381995
24.0720298017 17.222127207 36.3259628927
23.9106373283 22.2611160533 33.7377630792
34.1709066797 17.5623556521 31.3228429484
27.8572684775 18.9268327772 35.9567806324
34.0092018455 22.9112164131 33.044279272
30.8332813263 21.3194050426 31.3749499575
25.8844496214 17.9133522075 34.5962966494
26.933856321 19.3333420847 32.1770768058
28.9287013578 20.2344578947 33.5636729546
26.1983955914 22.5474976386 33.8504378379
3.1379480769 7.5991056799 39.1325498136
3.5601214514 7.4832704995 41.4223310671
0.9018240691 7.3118846939 40.0047618562
8.3629538181 3.0955168092 41.5920520126
5.8191226411 5.9672379336 40.9707652533
1.3236954273 3.218026404 41.7439699724
3.4177072438 2.5066335669 38.6661428381
6.6496006869 4.5787353294 38.7916733899
5.7102403386 0.7968114005 42.3515447373
8.3659240778 5.9643347239 38.967784179
0.9337449586 4.4643796614 37.1985433406
9.6572611321 2.8702467693 43.8780949998
10.2329058237 2.9945647269 37.2743493335
10.4077336229 6.0422032868 43.9218632695
17.2109567097 2.8683768842 42.2136941954
13.218721445 7.1516580936 43.124364967
12.5849694773 4.1305305217 37.1951673284
11.7037967555 1.9704031151 42.6349960734
12.2800841816 4.4945035776 42.6444435936
13.7089456647 6.7641641568 38.8503846349
11.4073253973 0.5607455733 40.3706607952
12.8294464382 0.3718315304 44.1322437251
22.0290354194 5.9934738307 38.9517641856
22.5990313565 3.3488106621 38.4639285503
20.1153805971 4.28878425 37.9697065713
18.4494905218 6.2384463794 42.3421269421
20.5062072499 5.6558503084 41.212338803
23.4835918718 0.9262994836 42.799043364
22.2871029212 7.4599715343 41.3642605793
21.9674963518 3.1539409374 42.1544048814
25.7824981683 5.2754091169 41.8220117752
17.8207458682 4.3614640846 37.7050325448
17.6336268388 0.3858422266 39.7121067648
17.6858496408 0.1723764186 43.8019583044
30.9901919613 0.3620604922 38.9046115917
27.6326081835 7.8309114535 37.7472546767
29.3626160778 2.5835264759 38.4874723239
28.8816360626 7.6510043511 41.0077862352
30.7565647545 7.7744305535 38.9564754058
28.9838075147 2.4022577044 42.3142152949
32.4798886406 3.5670993226 41.405146929
0.6095732559 11.5563101882 40.4311981053
5.7161849163 8.4707207651 41.0828059532
5.0467429673 14.0746509094 40.1128171002
2.3908620893 14.4661476812 40.7554771001
7.8580361292 9.5112910717 42.333951153
6.4999165602 8.9022496809 37.2989758974
6.6624651462 10.4366847078 44.1091263278
6.6707696861 12.3753866846 42.6892633009
8.4410807443 13.9341757425 41.3653080497
6.7217840662 12.3379328945 39.8613419275
2.5840119648 10.6280827474 43.5192678095
9.3290645272 12.8739962291 37.2872362674
15.8600691328 15.8319666626 42.0070615972
15.4273911977 9.1864314282 42.4680616349
11.6887682652 12.7373013643 38.5169775034
10.2673238993 13.5565362028 43.4108925511
13.216205083 15.6235421539 41.5063774269
8.7574911998 11.4389304742 38.8175010201
13.0354290201 13.6218343882 43.4172006914
14.9321542623 12.2570187074 44.1153824652
9.8183752081 10.0217490178 40.9473076174
9.8450874654 9.6240279859 44.1995795654
13.1566498479 11.5844694502 40.3710065497
15.1786586394 8.8726255401 38.0557832511
11.4293065266 11.0836573159 42.5693812026
24.7436925457 10.7561863025 40.8529920219
19.2815106255 11.4938562505 37.6694602227
21.4245242692 11.4842419644 40.6665128978
18.4124085388 11.5192211182 41.0925836647
19.1021050427 15.6438824663 37.4925927842
21.2999400198 8.6546049044 43.513729547
23.2547272244 8.4204577513 38.9709211409
24.2596324337 14.7007140885 40.5453051785
21.9676147408 14.989451387 40.7263824466
22.6501479414 12.1845834944 44.0005804912
19.3116073562 8.7135947599 39.1949109405
33.0758138884 8.2146339922 42.6114891831
30.7080355779 14.7090355379 42.6758618337
28.6733039774 13.7757344785 43.2512480673
26.0964786809 9.7200278202 38.7650787933
28.698187498 10.502186919 38.3462273428
30.2251718625 12.5234482383 39.440658969
32.6684994791 10.2625119687 40.5642962568
29.3953001023 8.182744844 43.8181835544
27.3639137852 12.8253967507 38.5646999119
26.8169193429 11.8161938872 42.56415293
33.683299406 14.4438123392 42.2935211605
29.0316870135 11.4152856979 41.3743528357
4.8150687481 16.0288258868 37.7104349006
8.2057586189 16.0492833054 39.508252149
6.2273500545 18.3781514215 44.5156727533
2.3498256694 19.5040596908 44.2387403099
7.7631682334 20.6637651573 40.6070221473
0.8297872421 17.307911503 38.9255859679
4.3199944476 19.5742835902 38.3040016057
2.5560498679 18.7608240163 40.3676396925
17.0676633686 18.6738130255 40.7850621394
13.0335944431 21.909773235 39.0646450271
8.9101953374 23.6498933937 41.2095013422
11.6308215934 20.3471807312 41.4456590693
9.4659348163 22.4709210504 38.5833324113
10.2808418635 21.748179074 43.8088055588
11.2820958869 17.4066636975 38.2281881077
15.9718163819 18.52515217 38.5132118725
11.5042248299 17.9471005052 40.5721904226
13.2670007206 19.5219134806 43.8047676384
11.3479950105 20.0468585841 38.6242712961
25.2842560783 16.8454974175 44.0733172614
19.2697082678 17.2455021637 39.0944133745
25.5285308168 22.9557154236 42.235129981
20.3812431846 19.2123889107 40.3639876011
20.6773458324 22.0058224687 41.6222330132
17.3492840033 21.4010999893 40.784153376
24.0394052629 20.5001820986 37.7512222084
23.806451541 20.8631639613 40.1693032582
22.782172222 21.0395005411 42.8150311985
24.8169331615 21.2721933907 44.1405813386
21.8991414125 23.2675970922 43.7079346891
27.8290027044 20.8187751258 41.3827895455
27.2754917278 22.2004590849 38.1310422087
28.3470338727 17.9132935603 40.5690723726
27.7602661864 20.1146169041 43.7261234391
28.0219905024 16.8001051579 37.887802814
27.8499722758 17.5039381247 43.0442267405
30.1152013876 20.6197089849 42.4160752441
33.5882583909 22.7273117746 41.5236188394
26.7824576559 15.9572826784 41.0735122795
31.482905432 20.6445944085 44.3380946387
30.1650202412 22.241443915 40.3240157665
27.8231188314 23.1900661878 44.6077019325
34.2527287491 18.7118570436 42.8053154909
30.5604092982 16.6045698085 41.0429108413
0.1929072116 2.9944021382 0.8302260714
5.3371851008 6.8102983885 1.0200872623
1.9568372366 2.6321375992 4.6856632477
2.030149761 2.8880437054 2.9985174133
5.1168501171 3.6693684203 1.9890381111
4.9308350731 4.7315399051 4.805343601
2.9463335528 5.4749100975 4.8715048578
6.3379762366 3.110679664 0.8261861124
0.4201745328 7.5477820299 1.9659530181
1.2509937754 6.491584778 5.1259712039
2.7003824008 1.6948986534 1.4725044296
2.849390118 2.7366332445 6.3397456294
6.8925107739 5.8672869473 3.260813781
7.8667220646 5.7181701185 4.9725749964
7.5281068842 4.3846742084 5.9300326416
5.3932515945 1.745790877 4.0843198168
3.6696718175 4.2838283807 6.0575849069
3.1106530045 3.8386962725 1.715765088
7.2672555873 2.146222622 3.3970874564
8.3004279474 3.1963047568 7.2811746454
5.085320455 0.3751930486 4.911434983
7.8194328142 2.6381541199 1.9120956307
5.4258208396 5.327016721 2.9803554741
7.9490124708 3.2644133542 0.4346209595
0.9808323433 3.929740708 2.2676257693
2.8348315292 6.3430693954 3.2056661081
1.8304314901 2.3864178884 0.3095567289
2.1948268699 5.167834449 2.3072469032
4.0530390393 5.4952248125 1.8978458214
5.2933696166 3.4978326022 3.6026296079
0.6105250227 7.8669366364 3.6226840002
1.5940409668 6.5670507773 1.3099079201
8.446185222 5.0644475126 3.2722052958
6.2288846685 5.5804454063 5.8957109352
8.0914667648 7.0061303771 2.2119134519
1.1415706537 2.9668835023 6.4038636456
7.0317897714 6.1087536797 0.3696208071
4.3354043024 1.5908005156 5.7713958581
4.2523490267 6.5070526415 4.943978541
5.4903558823 4.5991791585 6.9121978456
4.0541060972 0.8943591439 7.4175698532
2.1500630348 5.5600008729 6.5066718812
0.5830103882 3.3782541006 3.7937407062
3.4748697556 0.4324150792 2.2404545169
11.622672649 0.8431251877 3.0521146699
9.963511576 3.8228354371 3.5197183677
9.0699184021 1.94100803 6.7627276092
8.9478706757 0.1975169346 4.5723931522
14.8512833284 1.2217722477 0.6200698815
8.7753650407 4.9345611936 0.1641646062
16.0789558014 4.6638564094 0.4876940257
14.8784066879 6.7834078607 5.1136345524
15.9232971369 1.466163586 6.3651600652
11.0250859384 6.7462982286 2.3972659628
12.3966272823 5.4901608423 2.7268282517
10.7463380706 2.3470854176 3.1049466323
11.2020045881 7.850230899 3.9079564687
15.0980742342 2.2565318825 5.0508481681
15.1023316517 6.4477342571 6.9270038575
12.0301133129 5.1305038895 0.0844908538
16.6382604869 4.510631122 3.226380966
13.4421728221 1.9579987705 7.3151593137
15.0710157251 3.1399672192 6.7181926878
16.1351954131 3.1183785346 3.9561625986
13.9999824519 0.7466721323 3.8490171409
16.2726610351 0.2825979427 0.768773072
13.3732516209 4.1442721547 3.3245609177
13.6808997959 5.4912585931 4.7996939253
9.1377816304 4.5475223108 4.8624171876
14.5828363527 6.3609659768 0.0132732368
12.7134285023 0.4643360692 6.6760034796
12.4122315646 2.8265683486 1.5114425451
14.038566144 3.1147378594 1.91414578
16.4500826879 6.0277568522 4.0535312264
12.1834303063 5.9472769183 5.6490834385
12.5535754313 1.2239864038 4.4583419603
15.731799484 3.6513363141 1.7673631638
10.3633174887 6.6849459372 6.1813701079
9.6862681743 7.3546854415 3.3483647835
8.9971947889 7.2734468543 5.1052716346
9.1605205134 1.9453003449 1.0998534755
14.5970288202 3.9595164559 4.9147153037
11.4638404615 3.9377175806 2.8333046293
11.8988308908 7.5479301954 5.5881156845
13.5212925066 2.1124838364 5.3241474179
18.2756030677 0.8992292951 3.5506613126
20.6448442352 4.2634089966 0.4991376768
18.1349516223 6.1993266611 4.5878139289
19.7906832941 2.7220825398 0.0442303446
20.7575184901 7.510274262 4.6024152937
19.3292311226 7.6484494397 4.1713677909
21.0559312846 4.5629006309 4.3264616141
17.3965279892 2.4780934862 6.7597143714
22.2443281999 3.5951007538 3.0721970163
17.8602166177 4.8833460238 0.1882812062
25.1973970987 4.5222022927 4.3183094991
21.3485340581 6.7653847202 6.429679434
24.7062672227 3.3055342093 0.840455086
18.7325523656 5.1826978468 5.8155341876
23.6945302404 1.5451046318 6.0666722235
24.7958830552 4.8280674488 0.8461090956
22.6344513365 3.1373802985 6.7525441575
23.5246562973 3.8547679879 4.4357974326
21.7485748835 5.8193535412 5.2570294583
19.1886400552 2.3618895998 4.074493105
21.450408679 7.0227783402 1.9390178643
25.4377686346 1.4059942069 5.725515455
23.8562784399 6.0301797761 0.1810905069
22.8810514158 2.0863163252 0.2848512134
21.468304524 2.6873533564 0.9391328903
18.4572987365 3.140529645 5.6865880675
17.3661801058 0.2111634101 2.1464711089
17.4606425297 4.2984822619 1.7345814066
18.0386914366 5.2598382796 2.9665641089
17.6323097474 6.3901991661 7.3086705537
23.6451080355 4.6741203485 6.8476391094
20.7092968582 3.0929103739 4.1056554483
19.9555468015 2.4208589015 5.8723689019
21.1259403381 3.6979629877 5.9342546154
24.7403701971 0.8872038028 2.9365754809
19.642764168 5.2355283525 3.4144250073
21.7355551461 5.62309515 1.1979823811
24.3748117961 2.2545189543 4.6530224995
20.3476127481 5.2385701512 6.751565
23.4276245316 7.3989846893 2.4591457938
23.2794573658 1.9394587775 3.5278036886
21.678350823 1.7201105989 2.7761067654
25.5428707304 5.2106616676 2.915978403
23.3676041674 0.0852327637 0.2438796477
24.6089912824 6.2579672622 1.7583622103
20.2022684174 1.4811348319 7.2504452418
24.1608740029 6.4722026606 7.005681578
23.6660008713 5.5391071876 5.4462028014
24.7674185556 0.3833699094 6.9738992866
20.1378269765 7.8947578084 2.4503114597
22.6509026614 7.4821626665 7.29153045
30.8521400953 5.833877089 0.4349861414
33.0694161894 0.3206468598 0.0946034674
34.24316762 6.7141825605 0.3785594593
26.2996376362 0.4480610321 0.838789393
29.1630192946 2.1050692174 4.63896192
30.7894880853 0.7565377141 6.0498478253
33.7041376423 5.5676178325 4.4923213802
30.9470100014 4.6655985466 4.0267249258
31.4070455939 3.9633937085 1.1674737214
32.0560940198 7.5465326887 2.9430051618
29.8022001246 3.027914843 0.9793569998
31.3811063303 6.3561934056 1.6861581725
28.4013288172 3.518332776 2.0051308095
32.7567966488 3.8553111518 6.5427957227
33.2243816628 7.2021247418 1.8977507748
33.5228598243 2.4510909397 3.2920071876
26.9956718476 5.6909120419 2.3249355191
30.1917305664 2.2913113147 6.2741782401
28.3928628345 0.8307620177 3.5778322666
32.9919799273 5.527619742 6.133172224
29.2591210415 3.9796733301 7.1816352615
33.0287049479 2.9390178915 1.1924307624
32.7234169606 1.0090380485 4.1232861601
27.0719463332 4.0592886306 2.9868926735
34.1397387024 3.2757369077 7.0070173467
31.2676533253 0.3811690416 3.5267861853
33.6809421107 6.6757497968 3.3631370081
32.4412451708 3.7112824672 4.8906172205
26.3784261081 7.5791568149 3.1793440799
26.9281323913 3.2096135207 6.6888671855
28.1439687443 6.8506906192 2.8470484102
26.2550550699 1.3233502405 2.5377657574
27.7374915164 6.012397603 0.8545256628
33.3405974994 6.9153396423 7.0150597351
29.7408917061 3.8391595102 5.2669727993
27.6115919968 6.2769021769 6.4835849354
32.8800462865 0.6783978143 6.3274496732
30.7475026866 0.8085874212 1.9521229256
33.8179077261 1.2468137034 1.4002014593
32.1309444675 1.4778488022 0.9039223228
29.9754259839 1.4555613448 3.3805996772
30.5451463813 6.5189241557 3.1323186906
28.558411367 4.2946921965 0.4976892315
27.9196942279 0.3203741706 1.703920768
26.9626994226 4.0633962454 5.2182795327
33.4229630756 4.2925533652 3.6317462157
31.7159574905 7.0596549972 6.2620452157
31.5487157858 6.2318614253 4.7694505132
26.9339748488 7.5473972606 5.4041674663
28.5082907088 4.8019527721 5.9852767189
29.4094928586 7.4618909841 3.7042026225
34.2940813793 0.0645330123 6.8225722591
29.1045904541 1.5732914086 1.8711334666
29.640113651 3.5434846732 3.5240283389
6.6650458086 14.4974713594 0.420953396
4.2436935207 11.4381578046 0.1748972123
1.3871596697 13.4268054151 0.1389494388
7.0617252558 12.265797962 0.4637869214
6.7012580241 7.9660679747 2.5787014109
4.3333782593 9.4182767369 6.2840045488
1.8387492797 11.4003839716 6.3188646459
3.7897813209 11.3993811947 6.008538521
3.9177148188 11.0611476287 3.1862787896
0.8990751039 9.5961701423 3.4289586294
6.2510646778 10.0376818077 4.8933380561
2.4316883342 12.9340823149 6.7706650052
0.8429371842 10.9242543401 4.9307845193
3.9016395848 9.2351738582 2.5231698614
5.1780279854 15.4934412666 6.9345783087
4.6280546751 13.3010728754 3.7236676413
5.2974128782 9.2063321498 3.5296082022
6.266067639 13.284296981 4.5820925089
7.3614995863 13.1563618109 7.1902204663
7.2644019893 9.8545739898 2.7079801034
7.958281331 8.7800217948 1.3785680761
4.6442567511 10.6305721166 1.6326409469
4.2851751221 11.903262112 4.4735217552
1.0089862263 12.1954073128 3.6218268638
0.6726195181 15.4948155539 3.2862343363
8.0984494361 8.985720742 5.0898409263
5.7410615711 13.8367623421 6.5934308633
0.0967312904 8.2312209306 6.4116967497
3.9935621539 15.6214697627 5.4529012891
1.2760455151 9.5605486348 7.3308463499
2.2633681791 12.1984945432 2.3639150673
5.9271636266 15.5486094713 1.5548564684
2.6344185007 13.7765100144 1.5569726076
5.7506062015 11.6031199255 1.1570251866
3.1236643898 15.4188985032 1.9440819675
0.0822931207 14.4569845071 0.4537691152
0.722284534 15.0150596115 6.4604426887
7.7763301436 12.5404774494 4.0660441928
4.9536507805 8.1166046748 5.3468429121
4.4689362133 14.0219022061 1.9556785248
7.1611856739 10.0463376236 6.5169287196
4.5095061383 12.5394589069 7.1774832655
5.3719809301 13.0811330141 0.518897156
0.9655245927 14.1282723741 4.6827714376
0.8628700094 12.4804959947 7.13606293
2.194818845 14.8766031439 5.6290069857
9.8268419167 10.6139165036 2.6914868332
13.5443341756 9.2327527423 1.2421214337
11.6097690437 12.1778672807 0.2710077915
14.2431203595 10.7619233764 0.8880009607
9.219475042 9.5478402965 1.523722136
14.4988342485 15.8132105023 1.5654652346
12.4632161846 8.777348887 0.04188961
13.4857203668 15.7317392566 0.2028911497
9.0168268065 14.9496623009 4.0935453063
9.0196563403 10.055973156 7.0208324334
17.0474389488 13.0830163304 3.6818118073
10.2324969356 14.5279973338 2.1466621428
11.8608812858 15.8580461348 2.9913537135
14.1561889151 8.0760124917 2.3985748352
8.9602623331 13.6668741942 3.2128973765
17.1373965644 8.9129262361 2.7522377544
16.1371378873 13.1286166607 2.0531373726
17.0672380085 13.1659444943 6.9050797513
15.7835283972 11.3907048669 1.4242177968
10.3926233213 13.4280205592 6.4198236457
9.7530469353 14.8843869841 0.3957332709
16.6699905563 12.6001811828 5.3717387698
16.981998928 15.8040995161 3.6396473025
14.5809388025 15.3630449639 3.6301281326
14.827846113 8.2893360662 3.9358734427
15.900527561 15.188150848 2.3688720312
11.0208522239 13.8340789234 0.7235056387
13.9385534929 14.9208721124 6.565058687
12.5334102051 12.1357895404 4.7221390758
16.900879231 8.862700217 1.2688155184
16.9459014089 15.5933119716 7.1568637332
15.9038485951 9.9096432864 6.4239188307
13.3298163189 12.1789111214 0.4322940527
10.6009962131 11.0537911825 1.0893841491
11.8620553327 13.1807473205 7.3975253024
14.4591909698 12.1184097897 2.027099537
15.382331385 11.4345037252 5.5387988613
14.6446794114 13.5706096134 2.9187759465
15.4099590289 9.8002833785 4.7065872211
15.0673165269 7.9860377593 0.9764103289
12.135172747 10.7787894693 5.6777738894
13.6644865485 11.8249911104 5.9581090975
11.3959847189 14.6269398243 3.8851974271
12.0420383445 9.0467079654 4.8441517397
8.6488690457 10.09266001 3.5743239361
10.7648444725 11.8657739513 5.3993100929
11.3560891184 13.2959924957 4.6862461698
15.3407906178 13.4562461028 5.7510707771
13.6384980692 12.5482910467 3.5150383686
8.9002158337 14.2800103347 6.7181135607
9.1134268789 11.9512338303 3.47213728
17.7595330181 13.9977475853 0.9382959347
24.8646821757 8.2350763192 3.2655873066
20.2195768639 15.3884536096 5.8104197371
23.1558664033 15.7140655131 7.412943246
24.897830331 15.4604225749 1.6609819272
25.3381687751 9.722439231 0.8870145805
22.8349318752 12.2410996664 1.726965434
21.3969067118 15.6296199555 2.9213367109
19.1311264311 11.021574673 5.0517733417
20.4101299579 12.5209620024 5.7407809234
17.8139868141 14.4215595018 4.2212360709
19.9784866512 11.0787788849 6.3966910012
22.0001268976 13.1977029507 5.9457982861
24.2948558267 14.6852645558 2.8124014173
22.727649936 12.3035810954 3.3582091046
18.955856374 11.8457301004 2.1291067501
20.1667684232 10.3058334788 2.0891839972
22.6321776087 10.6565270229 2.7603886143
24.2127355558 9.0865703038 5.0218517011
23.7816529041 9.3637097866 0.3491392656
18.4302562807 8.0482742429 6.8445463771
23.5011270737 15.3760242849 5.8016311156
19.3399280563 13.967926741 5.9560664501
25.7403776547 13.9953850623 1.7562692294
19.2818933348 8.9021454948 1.3648122444
17.4485145288 11.5638672902 2.7398772988
22.802648594 14.0526988022 2.2101928915
18.3192003786 9.1666828656 0.077029932
17.3416841987 15.6465582999 1.7238564465
17.8849066196 14.7345142777 5.8860202539
22.0366897023 9.0650193562 4.8506223466
19.5996956421 8.1054486907 5.7230412454
23.7346248385 8.3798679219 6.5383953243
20.4280091373 14.039061928 2.2700624887
21.9102758353 8.146041758 3.5012511941
17.5871554499 9.5116126882 6.3968712464
24.2780383365 12.077773016 0.691716171
21.4401761403 15.1846442107 1.3964076975
21.7087990919 10.9245818766 0.8917185778
20.5023189361 10.0097450379 5.1259973783
25.2408843824 15.0368118526 0.0095758691
21.8755298019 15.0196099969 6.1493303224
21.1983243371 9.7899876069 3.4249820936
25.3254870236 11.9838902997 5.1707645123
23.8468682837 9.438171093 2.446169161
20.6884410464 14.1184588388 6.8636499111
21.3230636551 13.0395013952 4.104569904
23.9260337945 12.9990893384 5.4398729408
25.1756049013 12.298819616 1.9339079969
19.4700395223 13.3682037404 0.9884733905
24.9790167035 13.041300388 6.7015493705
26.5234384766 8.3080664481 0.8058479934
34.4655719315 12.5958406173 0.3213510242
28.0483564016 8.8816177041 0.5581614389
26.1024595858 10.211899022 5.7136203369
26.523928858 10.6370957209 2.6499291647
31.1052038844 15.7480614901 3.3467190092
34.4121155221 9.2298925496 4.95974089
33.5958739519 11.1929205628 0.3017477175
31.3629408649 14.6886356237 0.4088280535
34.1379190951 11.5964202926 6.6912541047
29.7016019097 8.8233192479 1.1100962248
27.3814601127 9.225382576 4.9355920796
27.2434957201 13.6440555001 3.6992053277
33.5715274778 9.8550376208 3.1774093658
29.1883094879 12.390770752 0.5523434734
29.549576588 10.4494510666 5.7344712807
30.4168749878 14.0236414598 3.3647103526
34.151071903 14.5833669006 2.0545924973
27.895182206 11.9005513326 3.3824956336
32.3021934499 14.1269752677 6.3398383798
32.7136178171 11.5955352471 3.361311579
28.6226961205 12.779943917 7.3823876901
32.3231013709 14.6705528176 2.3956364586
28.9546685284 13.9292785891 0.5915061197
33.6531928402 9.8666695862 6.6650503203
30.4372338135 15.005826374 6.3569386252
25.993247725 15.1345531445 3.0859454487
33.7295503635 13.7296382193 5.1315615723
31.0663134551 9.7803965005 5.5542374624
28.6513194563 14.4087943994 3.5968492404
29.9669899288 9.2149880778 2.963325223
25.9514055796 11.273667271 0.6252996209
29.1365436417 9.1199795618 4.5255399965
29.2599510602 11.0690381371 4.0722123165
29.9392342498 15.1212927572 4.5186991772
32.5169673072 12.6014067249 7.3147627287
27.9545068145 8.4148696094 6.4310427983
33.7661016911 15.192564481 7.1695410868
31.2986664432 12.9182102368 2.5952263498
30.9600887646 12.2196685958 0.9461317367
30.5680272061 10.2143766559 7.2157644955
30.79683021 11.7890679314 3.7689970245
32.7836165209 12.1898790506 5.7945996382
25.8744161041 9.2759443443 2.4503227523
32.3683264882 9.5958982678 4.3181250394
26.0856271888 12.2389583857 3.5196654809
31.6719514507 11.324290438 4.9575449414
34.2368709777 12.0898133936 4.8253810425
33.8433447846 14.8605293058 3.7513967131
26.4778141314 13.9725754731 6.9506789886
29.125338351 11.0669806135 7.091759737
7.6034328965 18.5166824146 4.9407518228
1.4718988332 18.454602048 5.9061916442
0.7113116342 17.3799372555 2.7892833036
8.4654985523 17.9765617885 0.5738283875
2.2853375438 19.7057147799 4.6882588473
5.4248412104 16.6484537428 0.5520793505
8.1966802478 18.7929688051 6.6190958028
0.9767482501 23.5398004483 5.4899310339
1.2910078778 20.6966331409 0.8882942039
2.5553996146 18.6745614504 3.3283606556
4.5560783484 21.7724451805 0.5151872189
3.8787995086 18.1785880134 2.4716917283
6.2035282141 16.5275903821 3.1255612697
7.9447091868 17.0370903086 5.899056969
1.1249327567 18.0855078636 4.3330739956
0.1003446838 17.5505571958 1.3464314901
5.8053487432 21.9220012662 1.4623381838
7.2322367468 17.8884218554 1.859708919
0.6056436473 19.1129301532 0.3834055949
7.8841975408 20.4526900816 7.1736685576
4.391057714 18.3402703668 0.8661613275
5.4417645467 21.9534487586 3.2434683664
8.3448895773 23.3564418315 2.9943835072
8.030180197 22.5207063356 4.6673851812
2.3428035684 23.1656341407 3.0018563074
2.3117896004 23.0916292175 4.7711988421
7.267763184 21.6258564934 0.7629836322
0.1792393298 23.5817308808 2.2210477042
4.547834665 21.5017471725 6.1166641002
4.2258213227 16.3890910251 1.469370903
6.7481448701 16.3217572963 6.9548066013
3.0021880539 18.7952012341 6.6940205271
4.0948169413 22.6087124134 3.0816673512
7.0164700623 18.9620560899 3.4760871465
0.8017169722 16.9373364963 5.5481721256
2.6461935127 19.2239445809 1.681309127
3.7631464992 19.9577690259 5.5406949716
5.5841717236 22.5604651786 4.7320552006
6.3279681106 21.610314833 6.6901806536
4.4959177382 17.0473847063 6.2033488354
3.3208494234 20.6458609894 0.9973317189
4.8788958719 18.4179104926 5.2613990642
0.4708209486 22.1510933592 6.934457323
1.1587434648 22.1463617648 1.5380853794
5.2735221997 18.2487527773 3.2405449991
7.8450120501 16.3314710089 4.2328237716
17.0845564551 17.367083897 0.7976555228
9.7158037062 20.9494149502 6.9315501037
8.7071368045 18.3830561849 3.4675566378
15.9556866036 16.1387508954 0.8786081088
12.8861358858 21.9482277455 0.676605473
15.776911738 17.5092627474 5.8119101563
15.5565411573 17.6959401058 0.7833121295
13.5573152585 19.887701322 1.9397706842
9.4628940323 22.1534620581 5.7126144188
11.8048735764 23.4821095917 5.5240285539
10.3059646634 23.6922144829 5.6804268746
13.8317252728 19.2811046853 4.9631748469
14.4981420948 18.4851474436 3.2668328374
14.5490467154 22.6072547317 4.628655315
15.509926438 22.3702982013 1.6520370701
15.356167573 23.072216373 5.9333807886
10.8378607067 19.167878139 5.0006419145
13.8750430392 16.8315026255 3.0062609488
10.6059991331 19.8267985325 1.2880164515
15.3918921063 19.2235426082 1.836135619
12.5617855233 16.0527931961 1.4485985336
14.3825777819 20.6056891616 0.703071633
12.1620828701 19.102063777 1.0562137429
13.960396079 23.0504218942 1.2529247527
10.9783755292 21.8510521435 0.9349209242
11.7725657299 23.3857844609 1.9844161841
11.8866714573 23.1796639828 3.7884211491
10.8582370184 20.6325013777 4.0478470641
17.0978421537 22.6344503613 1.3665619884
12.3601734437 21.9732277531 4.7276210629
9.8830204321 20.6325960372 2.6805976613
16.8734244312 22.1091430989 3.0820742779
12.9294079702 20.6322543191 5.0215057605
16.0107454976 18.968973773 3.7913554042
9.124021893 15.8761171724 5.8071801853
14.6722569166 18.4245002285 6.3617119784
10.1534267692 17.5582649091 6.1594866361
16.9374846813 20.20719589 4.0570966776
10.7416972085 17.0433181229 1.7322786314
16.6148908366 17.5336273866 4.459224002
10.2083578348 23.3970886571 0.5204356418
16.1526794983 22.4163430645 4.7043249799
14.4078348905 23.0929228445 2.9290694249
16.9907585119 20.0661638118 7.0602656231
10.3522669646 22.7821110509 7.0357991788
15.3070196059 23.7724084799 7.3312861102
9.4847208542 17.5278688111 2.4601940201
8.8753291257 22.524577295 1.4438279396
23.0237056733 21.3171363834 0.5494156825
22.1297245991 23.6251526184 6.3849012507
17.9354501884 21.031470254 0.7380086069
19.4463579111 21.8599557537 3.5107600621
18.1150681029 17.1748614607 3.6148426065
21.6129960238 18.1278188869 6.5412667491
21.3731434054 16.887912049 1.2281097183
21.7839549188 22.6174395042 0.8861457478
24.5506220553 20.2699944061 6.9878358485
24.64001799 16.3213037799 6.46240536
22.5105490769 21.2714381071 4.7071370604
20.7964973027 18.5739669802 4.8625523648
19.084306336 18.4737258843 0.7580965393
25.3184894626 21.8497396028 3.21759519
24.6816402784 23.3758663266 0.7785777987
18.518008458 16.9087084948 1.8163372175
18.566910638 19.2402653219 6.7238098238
17.8968277484 20.5283961499 5.6487134874
18.5416795527 18.2261228845 5.052309154
19.2934053244 21.8048678221 5.5692409976
23.7236115171 20.794426399 2.071022736
24.7781323528 18.5065469769 0.5694481018
21.5922522629 23.7006182514 3.2239301206
19.1716492799 19.8349394814 1.523584899
23.3403677867 21.8946055897 3.451388829
19.9434334842 23.5568370677 2.9024181717
23.0936930256 20.9045063843 7.4236900434
22.3798644994 19.661010258 2.120267162
18.4940023838 20.9913242311 2.5137239219
22.1283125463 21.9185986155 6.3735894331
23.0734832404 17.2298479588 5.9218072737
23.4694800861 17.3686062766 0.0011042046
21.3713590199 19.7095010715 3.7751190752
19.4259289 23.6237752909 6.1620419087
19.6992098365 20.8603396527 0.162471769
24.4282740634 23.0639212691 3.3217997498
18.5925145847 23.2360576463 4.3053953191
19.8505225833 16.6143837246 0.4925483369
20.0794727974 22.1747689765 7.0659323312
24.3060464958 19.2444780742 1.9800896036
24.9817063058 18.1221517289 3.133295917
22.1930240015 18.0382916312 1.8311582405
19.6958013602 16.7902266327 5.0793813962
34.0186027055 22.4776793289 3.8396717578
27.143624333 21.5079172265 0.4309552772
26.0609454863 22.6720257964 0.4096691266
26.2137288755 20.1115891417 0.4898031184
26.7851631494 22.0490677302 2.5899507184
32.8507954997 17.0220533181 1.3086622433
27.405059844 17.4741018818 1.8130082183
34.066917641 21.9531870991 2.1452901566
28.4017056586 22.9893426044 3.0792475854
31.2520396443 19.0489768499 3.8059384344
32.8577915949 21.3820125643 7.0004445568
29.1481291943 21.5256810313 4.6897229347
30.8045878643 22.3811277538 3.5522067367
31.2891413886 19.6647828827 2.4086502895
32.2911309195 18.986142837 1.1221879002
28.3813085933 17.750540181 3.2229756563
30.0897062748 19.1558580997 1.0024649745
30.885002044 20.8536290775 4.4850019182
31.9524704596 22.6040658732 0.5036247884
25.9518538357 16.6960568346 2.5122918064
30.1359688547 17.4235097413 6.308909359
28.3708469358 21.2993522561 2.9821748333
29.4057128052 17.5087349452 1.8611802054
27.1279899205 18.338336146 0.4191182979
27.9432222644 22.3022652515 6.2223409521
32.5864199689 21.3794395595 4.6741938088
33.9729276516 20.9003728837 3.6197138057
31.0098154969 22.8462516244 1.9189788617
27.8356517817 18.1008184434 4.9179645363
28.3598700945 19.7769296717 4.1765773864
32.9773384931 19.4064088662 3.8696602933
32.6975764584 15.9656274222 4.0086594636
29.435540898 17.0292321307 4.9516856787
27.8316855968 17.006797192 5.8770100746
30.3127856604 17.4770855104 3.2279755972
29.8879673193 20.1403384864 7.1484249223
31.3191182799 16.1435492592 1.7296169587
25.9807585145 20.56634855 6.1769332763
26.3149765026 22.8902638005 6.0463829244
26.9627339207 18.2045788471 7.2906957561
26.7503295671 18.1830263976 3.3730860195
33.737159844 23.6087675526 5.0191053693
30.8843315162 18.7327523746 7.216482756
26.6895655707 15.9263894067 6.5132198737
34.1836907893 16.7243134543 4.1120161134
31.3065222134 16.3876804443 7.0685777415
32.9326750578 18.8394961189 7.3783381395
1.4665531515 2.1573518382 9.2915011327
8.1674347688 0.1067639718 7.9651667277
3.7667194811 4.2905772149 10.0080125939
5.3570986732 7.5326993689 12.8936285559
4.1671550039 5.2604968076 14.4377125316
5.1791651062 1.2435454145 10.3947832016
2.9390062018 5.4958510983 13.053172358
2.077874203 3.2200517466 13.4701226793
4.0158195102 4.34647419 11.9959820008
7.1792939101 7.7066656018 11.5215553629
6.401430224 6.8307241665 10.4904123324
0.1254751691 2.3176157122 8.3832649923
8.0245526757 4.3354039174 10.2672027889
7.952600828 6.9187582051 14.8553697669
3.602404454 3.4945737322 14.6751758571
5.720638666 0.3613030073 7.7898230366
2.7129876978 1.9505908673 7.9669248095
8.3564821299 1.2490168795 14.3780207534
3.7810994741 5.3316293393 7.6584006776
8.3615274885 6.2216769757 10.5872662843
0.7871227403 3.711099025 9.2390063925
6.7707221936 3.8792599879 8.0011850992
1.0980090927 4.9155239445 10.6805336836
3.8858064849 2.7903253843 10.8393961326
5.5612840768 6.5302797692 9.0806907499
5.2773246128 4.0721412455 12.922447833
2.8707295704 5.3860299729 11.3651030889
6.3607789902 0.8956623869 11.9281407799
6.7886113097 3.5238008418 13.1836788907
2.4713882383 2.014689077 10.7046804803
4.9829021762 0.6774345752 14.1369868152
7.4693496257 2.8069732738 14.5752114086
1.1292788076 7.7520175511 12.4320607236
4.021671145 7.0112772594 8.6927698441
3.8764190328 2.9503502251 13.0704320845
7.916918269 0.2295043097 9.6845263626
0.9927003727 1.7576676044 13.3923398256
6.613913232 7.7222294223 8.1691104031
1.4090728003 0.7196711922 10.809217822
2.4630169704 2.063995352 12.4343216276
7.5769884756 4.510258813 14.4467832186
7.1198370676 1.4721710653 10.5927151249
7.5779081762 2.8041890381 11.5063047888
6.6741994003 5.2671659458 9.3643206379
8.5564443014 7.2350326629 8.1771231049
5.1863056472 4.8187558305 8.866499732
4.8769207983 0.2098965329 9.3288386321
5.5787417073 2.4679926627 13.3655719036
0.5094004699 4.1996392289 12.3368532353
1.1425398095 5.0126686131 13.737525783
5.4645253256 5.9986446568 13.6938787538
2.9668358891 2.7593431382 9.2578152761
0.9330697927 5.0205777305 7.8874000724
2.7007562674 7.6209223326 9.6827836703
1.1265903084 7.3734318319 9.1928903336
1.795559545 6.467138631 12.6060179184
9.9714679672 6.2208783349 7.730574007
12.2052435975 4.9994186089 8.8877473136
10.0670686691 1.6556803242 12.5589009593
12.5686123751 3.3543115205 8.2844804164
13.6679176712 0.3344868639 8.0152649413
14.3813636874 4.178577498 10.8677816759
11.2698740717 2.8610473689 12.0193443539
14.962039676 2.4955199664 14.1711266275
11.5757312261 2.9829952294 10.4385019203
10.7223738636 6.0227950029 9.1696827474
15.7434636142 6.3206167336 10.1756454356
13.5981417716 3.4935311732 14.0371854523
12.7350023614 0.6206308716 13.5333820277
16.1714354222 3.583350592 10.6680576232
11.2675025068 1.1244553091 10.1102042396
10.1867229876 6.5189384987 10.7371974293
11.0056112587 7.7750161897 13.4331121466
12.9850959924 6.6118991885 7.623508577
11.9863806627 3.6757337913 13.4634189346
13.0183035952 3.9371085179 9.9011644794
14.3143667403 7.656959681 7.708036677
11.3020007213 7.3277124395 8.0786954414
8.8045136566 5.0340615815 11.7211644241
13.6519871246 4.7258638792 12.4928715317
9.1073033572 7.6290768099 9.8986384516
16.7236872419 6.4001970336 11.5894148374
15.0026522713 7.7046139274 9.4382213763
9.3063229392 3.1311503249 12.0589542053
16.6265172564 2.1526690473 10.1204510568
14.2742021499 1.1627604412 12.9051098481
17.0624935899 5.0968252266 8.0673063906
15.4795000713 0.8395665984 10.2138945137
9.883224093 2.9479993284 7.6425591229
9.1009733389 5.7964406034 14.4917167951
14.7149584747 4.6773093193 13.9254684087
10.3145916324 4.3724621635 8.3766944188
14.5715442531 3.4522968757 9.239073944
10.9913409298 2.5197847039 9.0737812584
11.6103961272 6.7199105136 11.837291652
15.565192846 6.7126026133 12.9476504982
12.4021020942 6.9135610921 14.29048033
16.2407054808 3.8276741033 13.6026224343
16.523367662 7.5644566451 14.1752972713
10.0151794654 1.1487462485 14.071500556
12.6489673498 5.9269720882 12.7459929265
16.3575283532 3.5106390833 7.7391426133
14.8538648995 4.5374165235 7.5345988702
17.1844350193 7.5032684956 12.4009599311
11.6526599624 1.8291593358 13.2580693376
14.2150129326 0.6431044937 11.2138158714
18.9319859533 2.503317604 7.7209089459
17.5017319205 1.925416641 11.9741886399
18.2683756242 1.3811526897 10.5498680376
17.8897486459 4.0169887826 14.3905078843
24.81438524 6.9202909814 11.5448179278
25.1045638031 2.4028161577 14.631530077
23.8263566378 1.8655855542 11.1160921475
25.6761872322 1.0913377239 10.7749418417
19.4968042031 3.496373291 13.6910317619
24.5606463936 6.4601868239 13.4933895162
17.6238541612 0.0328533729 12.151423546
19.72665996 1.7503376041 13.4321189842
20.7764609216 2.4094962323 14.6544634726
20.9895169312 6.1847203462 13.2837107647
21.323083663 7.1054552774 8.1067663086
24.2127688775 6.7469639515 9.8138246548
18.9518015877 4.4036465272 10.5535385953
24.5068218569 0.4359591142 9.7265117963
23.083588618 3.6039947929 8.1604436481
20.5357459672 7.4865674586 10.5322849284
25.6745631391 4.2803614428 13.806852978
23.053811176 0.5730990075 13.1090991133
17.3383276172 4.6645341305 10.8871329476
23.9984374243 2.1593944869 12.8539790077
21.8434756019 1.7796156129 13.2700270449
22.0344942596 3.4710015376 13.2601570064
20.797078759 4.6827997664 13.3787778569
24.4908605483 5.0406394141 10.6566159548
19.1163079998 2.6377781064 11.756045546
24.6591275327 5.0613535673 12.5360738089
21.9969814231 2.6481605495 11.6244601937
17.8897061641 3.5159721966 12.6357139903
24.817451581 4.9932360322 8.8262976386
21.18354573 6.0144533302 11.1554900662
18.4184506352 7.7377429694 8.6120663309
19.6912069577 5.94947881 10.3448717423
22.3302023719 1.2744773915 10.3565656249
20.13154614 7.6180695155 13.3251531295
20.9552624857 5.4561308831 8.3626827303
21.8293470293 2.9592104879 9.5489626641
19.7431162214 6.8382930987 9.1352488047
23.8098566656 3.5484659069 13.8259065004
22.7634838868 5.3361541623 10.8942115257
33.6500466722 5.0607294696 7.7256351623
31.2325536426 3.845010566 12.516944292
26.875042759 6.3822737707 12.4730939011
28.9235185361 0.5485703227 13.7686410603
29.7220113581 4.2179968425 13.7061341115
28.5140049863 3.4129728077 12.6618363
33.411165843 3.7712109314 11.715795351
30.4669043044 1.5634769924 7.6980078079
32.2971134664 6.7175383735 12.1096318469
32.5058362245 3.475747591 13.3379773394
27.4345659344 2.4652165462 10.0447435046
33.4209092327 1.282497106 9.3036109572
32.2304788573 7.0151690992 14.009224169
30.0305633222 4.3822792705 8.4725610922
29.9973796803 6.9628543314 7.8109446364
28.0034392147 2.2015399255 13.927047522
28.8614406757 5.9664732998 7.6090745914
26.1581102845 1.5475237981 12.3531336777
34.2514865631 0.9630391454 14.3595317687
27.2281805986 3.2281381274 11.5932197697
29.394318026 0.5268571787 8.5770523922
34.4063942192 0.7391119215 11.8721654288
31.0326291872 7.5219494147 9.2838368183
28.8932744653 2.643542119 11.0571568494
26.2248391496 5.8320752837 14.263594843
28.7858927799 3.4187957938 9.060811982
34.3750664322 6.1801474957 10.1276842568
30.6375974786 5.1889775743 11.3724362742
29.9314145413 4.1915106607 10.2548559198
28.6674344706 1.0562936504 9.9273007345
33.2915706346 1.8961945477 10.9653727078
33.3882698344 1.0123965802 7.7634556736
27.0458380544 6.0463521163 7.9887245248
34.0351105011 6.7333085332 8.6182897091
31.6535496593 6.2363401239 10.4595782191
31.8798739603 3.0533181631 11.1038489683
30.8779676108 0.3826586539 13.2669682702
27.2241539133 7.1722300952 14.0205929764
31.2512286431 1.1425751204 11.6730852147
27.1848695039 3.1478181366 8.5191275797
27.9942417352 7.2264698203 10.835918503
34.0339557149 4.513534187 10.2017403741
33.9662283329 7.3436764848 11.4786309498
32.9712255543 5.5597135155 9.4319900967
26.5508312799 4.6168586997 8.4891227365
31.2367061499 3.4877260812 7.5702478733
34.1018485283 2.450888929 12.5808069639
26.6594717647 2.9735959687 13.1929654833
28.9254519906 7.1838082109 14.5746846191
31.6452612645 0.1353372112 7.49259284
6.0472099087 9.2381286178 7.8435321256
7.7820813134 8.9962863741 8.0003315962
8.1984764942 12.4218510741 14.4145490455
4.4790130829 14.8378015629 14.2258405031
7.7418801577 8.2108637182 13.9361225635
6.9508397094 15.7370948508 11.9620130275
4.5088960678 15.3548479783 10.3752689452
7.6095034946 8.9438201023 12.4911005147
5.2465728285 15.79065005 11.7947388513
8.5221986631 9.0902303399 9.85693582
2.429894562 15.3132736265 8.3984009399
5.8612670214 15.4480855523 13.3580796938
5.1240746917 10.0010527964 9.1788666268
7.851824751 12.8507026463 12.3967837055
4.2228186041 14.1897552602 12.4736329733
1.2803736967 11.0889405536 14.6052627975
2.7410524887 12.8023348609 11.9795361884
7.5763336164 10.4966508088 10.174018006
7.5527571801 10.7476298346 12.1819569993
0.655969302 8.673305849 11.1303992273
3.0371810409 13.8465243448 13.5565341396
2.0031283162 8.3140726351 13.9963388876
3.3315063693 10.5213923447 9.0237566224
2.2708953144 11.9724342053 13.4091322052
4.9814989323 10.6627399723 7.5450498237
0.9895835975 12.2081987697 9.5430591572
6.182150749 11.5652683747 9.8651977226
7.0293989527 13.0394513393 10.7077317286
7.8064894885 14.4512430286 11.3608872926
7.2053247384 15.5148130115 8.7166963506
1.6482865073 14.0206975029 12.5259521499
6.1479985599 14.6468644942 9.8156612912
3.5734198782 8.9849244882 13.4007405294
4.1047806517 15.7466483908 8.6328019895
6.2980649747 12.0103281741 11.8817564549
1.856179566 10.9529606762 8.1669280085
0.2085276756 10.3800841325 11.0317338044
4.9911970711 10.5122060844 14.3062379163
5.6924092175 14.5100387369 8.2694927232
4.6149609272 11.7727688586 8.7187287084
2.3465184429 12.64498759 10.6588842574
6.0898665968 9.0600789541 13.4625536776
4.5568441215 8.9583613158 11.9509451401
3.8073266697 9.2215322235 10.1241944508
6.0049953619 10.4258231205 12.6326644377
9.6266047976 8.0735756866 14.3744339801
12.037863912 8.5035829109 11.9923874082
13.6014370271 9.4616298765 11.7900443825
14.4487263968 14.5771510732 10.0962423754
16.2479941729 12.9430417981 8.2754968015
15.6301181462 12.2403710953 12.3392563036
14.7234195847 9.0828005655 10.4611876448
11.9381655865 12.2040841327 8.8071866679
10.5680529332 15.8063416753 8.2312799718
11.7310134738 12.3885727664 12.0787663617
10.821587817 14.2782775523 9.5365775691
11.3742548432 13.981513234 14.8650834591
12.8950148092 11.416152119 7.5029907344
14.7820986276 10.6878115367 14.4719495418
14.1636632959 12.0080416037 11.4127711564
15.3947268155 11.8223231709 8.9572786488
10.2341569401 12.5350167775 9.5155220745
12.8722385489 14.4848473766 7.8176621327
8.8908712053 11.5823144388 13.255499405
9.01194332 9.8445613965 12.7473171132
10.8689287789 14.9976159536 13.7518888369
14.0397886043 15.0650369775 11.759894518
12.0449968234 15.3434019602 9.112879782
11.6129966369 10.1161406398 8.8378711514
12.872198312 15.1146549865 13.0514507626
13.8404573283 12.5639735584 9.8182616047
14.2722671679 14.973756842 14.2715922402
9.7406880899 13.2944973384 7.7449238666
14.0077134883 13.2451884481 14.821826222
15.9705793297 9.1923373489 7.9771218769
11.7861678319 13.6083147127 13.1607819794
11.4693389106 12.6820249664 10.4728345924
15.1465547658 13.2435383382 13.6584221593
16.9594389071 9.3490549387 14.7929844862
15.1171101973 15.5988978028 12.9248880965
9.6676411329 15.0443657836 11.0603400956
16.8719461583 15.765831971 12.9236916696
15.1879116071 13.9185365145 11.9786149585
17.0193842688 12.0682271606 9.5860238623
16.363699503 8.9873462967 10.8629341723
19.9248893713 13.9854647731 8.3031504809
25.5528985125 8.1656832898 8.97177142
22.7134062701 10.7056416642 8.0234883571
17.319856106 9.1208332527 9.1497199148
18.5535132999 10.0849441015 14.0046565584
25.6754974593 7.9733651464 12.5384670138
20.4837460312 8.3750167579 8.8471562843
17.85447605 15.7494258944 14.7457600083
21.8700320768 14.8367734845 11.2869273408
17.3062815896 12.0831785153 12.2039903597
20.0553653752 13.973766284 13.75183557
21.1284438367 11.3150917077 8.5130567691
24.1915591368 8.3452467754 13.8584042059
19.6298003206 15.3813972541 14.8590572364
20.0576866544 8.6500086383 12.0579367333
22.2431781566 15.0420588818 12.9439334015
18.6222597593 9.1390269361 8.087712122
24.4608989018 11.8765877374 8.3310402914
24.1084023462 10.2330798749 13.8305221923
23.9631293043 15.197840557 8.7073787267
24.4510876871 12.5244580705 10.1078639914
22.6713123831 12.3510081589 7.6171000588
24.0610176252 12.7984771434 13.1455887956
17.4408055534 10.4571392049 10.4941505238
23.6672225082 10.0986875265 9.6528521907
19.6331377988 10.7475685088 7.9262884103
23.0726269288 9.0705714265 12.9334759866
20.63427133 15.5780531652 13.6836004866
22.880402354 13.7315745429 13.7898165696
18.6253179411 8.6028825262 12.6479116902
22.9093594735 9.3017271747 10.9522765123
21.860659274 13.5743217079 10.030653162
21.9676441638 11.708859137 12.0231064284
22.7300401743 13.2918870698 11.5698981485
20.0513349106 10.1171816434 14.7222162431
21.1043698899 9.2227710514 13.4825529683
21.7634287973 10.0798724118 9.3914615777
18.143677601 10.8358497935 8.8454429801
21.6653902058 10.0065940879 12.0633258451
21.234995951 9.1154284906 10.6597664988
19.76843738 15.3648224362 9.599141421
19.2250200828 13.839422039 10.3189048491
21.4756816074 12.901107017 8.6744955026
22.8659832318 11.5739651282 13.3713452745
23.6992442441 13.4128593713 8.8364560109
18.7808222497 12.6559572185 13.477256455
25.175862467 13.0317056752 11.9567342661
19.0785692664 12.7801220686 11.6490427388
26.841204529 8.7755413589 10.0944637129
31.0453766378 8.1011939853 13.3211103735
26.8057336395 12.6201368285 14.339514601
34.4709184918 13.9162701127 12.9755315665
30.9505131512 14.0116660169 14.8049808497
27.2891421378 13.5589516711 8.2428598411
31.1685916787 8.2989172468 7.7007963347
27.4065088943 15.18154318 7.8561544188
32.3949287784 8.5329139782 9.2015785485
27.6342584999 10.3920835533 11.891183126
25.9404924411 13.2964084338 10.4732768651
29.2786569372 8.7992952491 7.6089384764
28.7778704758 13.3491111938 10.9460975719
28.9745815694 15.008582422 13.0884994724
28.8806855335 10.5055162173 13.2009739593
25.8788750361 10.0560906049 11.8359368243
28.3521583812 11.6343944997 11.0503335105
33.6029678903 13.208092113 14.4630805036
32.2957583539 9.8398115092 7.7906741958
33.3639721613 12.9403209809 12.2095657524
30.4409461098 10.8315809971 13.2857258437
31.614739163 11.2051761523 14.6876486609
32.1036958041 15.3545727088 13.9207955848
29.2924773948 13.9488206715 9.107193023
31.5121817333 9.0920796295 11.9207202005
29.3809511248 10.080179236 10.0717252603
34.0804879382 12.3798902876 8.4234425189
31.9327434897 14.566584005 9.3368244594
30.4402652923 15.103385514 13.8362419714
26.6601152824 9.747823065 8.6398350161
32.1415338921 10.1971881568 13.2101302174
30.3667213498 12.2918894282 14.0161165573
32.9258230945 8.2320803106 14.7283449017
33.1135360517 13.9800975981 8.2987236623
32.2589989915 14.4292876214 10.8842434507
31.6145654336 11.4192632179 8.3088591165
29.9524115156 8.8401645233 14.2298611476
27.385929216 12.8063402961 9.8299493275
30.6422213823 12.906283984 10.2119049728
26.3599796924 13.6295870329 12.9853672576
28.4321147112 10.2224466082 8.5727300618
32.7691996968 10.2295075305 9.4631292144
30.9307619517 11.161356678 9.9189351123
30.6109153277 15.2136591663 8.2839005856
31.4000503916 9.5435594943 10.303206115
27.8505468917 15.8569052489 14.0211658868
27.7034327922 14.0646289759 12.0100943479
33.9154342512 10.5006840598 12.9472371978
25.9414348535 14.7492670908 11.5663642817
28.9499796607 15.6515112125 8.4923805365
28.5701175871 8.5634592337 10.301015995
33.8681107073 11.235014846 9.7013692482
32.9249742837 14.9691030618 12.2585828129
2.8417450225 23.7063022238 7.9699112131
4.3365317788 17.5629457014 7.7545204014
7.4640893441 23.7629531819 13.3524190282
8.2549458128 22.3952296404 12.1075014521
5.3020514473 18.3244436268 14.150220933
1.0926199466 16.390392417 13.970467805
0.1464381 22.0541697813 13.7050706793
7.9672745821 21.0999718878 10.600083228
2.3356627851 17.1923695009 14.7728938175
4.7204965571 21.6891347116 13.9085725951
5.0429619108 23.1226894952 11.1166689085
1.6748258144 22.5458004061 8.2839015206
4.6319032032 17.2902219088 12.9723545403
3.2985665809 19.0467739065 8.3015106435
5.5310228687 18.771688264 12.469109029
6.3444634873 21.0145173475 14.0153011533
3.9839902745 17.0134409487 11.1780151721
6.9454223325 17.4280503938 8.8424253375
5.6389297548 19.6797041891 10.8721744943
2.1429798809 16.8610886594 11.2359846415
2.2368944299 21.9504256642 11.2006185866
1.6773221175 20.3781812045 10.7729217874
0.8532968029 17.7007446932 9.4402063477
1.2788650733 15.9734785332 9.7336058908
1.4889766961 18.2001865315 13.6828519904
7.3087741917 22.4043922455 9.7223278554
7.8900512143 16.8762082483 14.3550149981
7.4828404266 22.12174774 13.8149447194
8.6138387278 22.8259453349 10.5182393717
5.724028255 18.3989185487 9.1873036057
2.8818105553 19.4452774148 9.8903992478
3.563222262 22.8570501929 11.8130537889
0.9608672933 17.6262972751 12.1960457376
6.3718602257 21.7710625215 10.9840867808
4.5334928493 19.8887174034 9.3367197519
1.3400690682 20.9993563379 7.8653938859
1.7078858714 21.2799447831 9.3812527675
7.3919125715 22.2867048864 7.9029945122
3.6717191627 23.270152469 13.6380039902
13.2642883128 17.604652796 14.8489576238
17.14246135 22.2669800811 11.2997743722
9.8254387741 21.9927507614 13.3902137768
12.1084444049 16.8779497926 13.4985800659
12.9791977773 16.1160789898 7.5563464764
15.4163243386 19.619911169 7.5809943031
13.8343746222 19.1552812576 8.0919009202
15.4487993997 16.4626338352 7.4964626927
13.7588995013 20.8291951177 8.1113906418
12.0876677156 19.7337263102 7.8440012215
12.0645694118 19.8569075632 13.4820374144
10.4663514855 23.5433952532 9.7090234662
15.3407176634 19.8018385705 14.6118505522
15.4367668425 23.589598801 12.6056137694
16.1725439052 19.6302109665 10.5889365274
16.1701379332 20.7596680971 11.8689791321
10.7403181334 20.7129190574 8.4876817558
16.1425558371 17.2387380967 12.8601072003
15.0025290478 16.090164317 10.4929065625
13.792572656 19.1461496121 14.5382212952
9.5232776883 15.9330381078 13.3069603465
14.8563315841 20.0927520299 9.1510096889
11.0535267348 22.5656301532 8.5735745501
12.1872090771 23.3594825441 14.7542673536
15.3251375889 16.847348427 9.0542861753
14.7591738038 22.0732856381 12.424881821
10.2921156506 16.760739077 10.810435559
16.0728325273 23.4062668476 8.8645456389
12.9203840195 17.8245448471 12.1810773634
10.8555222043 17.427078572 12.2959091624
15.9870729614 17.3267845492 10.9372214113
13.5018250586 22.2075108317 11.3098131399
11.8035608516 21.4576566842 11.0934996737
8.8889257043 18.0169209144 11.3450358925
11.995908515 19.2011347895 11.90461673
12.4954943222 21.6996196871 8.4619510272
13.4474157267 21.4821343464 9.8736776918
16.7098358961 19.047915538 14.4431297686
16.3576825713 21.1351909564 13.9443334713
11.2586985235 20.0916918108 10.599228015
10.3353597532 19.3786453051 12.6061942814
8.640538918 16.8990301096 12.6856336664
8.7874872349 19.1848395392 12.5377623938
9.5242418951 18.0047051356 9.5708559679
14.6110540073 17.234404676 11.9128060084
10.5292493807 20.5479657489 14.1449960916
13.8639194308 17.4974798714 8.2334297861
17.1234794189 16.7534140438 8.3623446244
9.8475335749 19.6808659797 9.9546424772
9.3805823467 19.1204627638 14.2864813479
17.3303183 18.5399678321 8.1961682386
20.4622542066 19.7945348763 14.8725036559
22.0280797667 19.6825757431 12.0336700048
17.4277843447 16.2040946066 11.25004598
21.8117822119 20.9293262502 9.9947010102
20.6632968345 20.1789262747 8.7857174717
20.3323838434 16.8955363266 9.6113829955
21.5767960453 18.5241274238 8.1348291327
19.8151681632 16.8373718263 12.3056448533
19.3718464465 20.8491772435 7.9166189098
24.4679200269 19.3721051219 12.4269627781
18.8372552641 20.1262551527 12.6523178102
20.0676734042 18.6169151521 9.8999210709
18.5029057246 22.4717998817 12.3873157461
22.5629714006 22.4408396875 10.5431888246
24.7351792202 20.4995145685 10.5025396188
23.358529173 19.8914764892 10.3549344657
23.177127531 22.6751367069 13.6906326117
21.6426915509 18.7879063675 13.7413656262
19.1666934176 19.6077074506 11.2150091884
21.6677547128 21.964278664 13.3388618586
20.2305348812 22.3268751996 12.6782819009
20.8502174644 19.7944072979 10.9578327641
23.2235169384 23.2882202109 9.1348516056
21.1302977224 23.6549047485 9.4842898549
17.6609609601 21.1708231992 8.1793722109
17.6859799982 19.9780816027 9.915414818
22.6419867545 22.9670862588 12.1064556403
17.6347274037 21.1172983293 12.6187386402
18.1907297094 16.018924149 9.8494328842
25.5502918161 21.9948147201 11.7360976565
23.2719722465 18.9555245332 14.6575041376
20.6107798711 23.5516686821 7.8098739882
21.2609666417 17.1166667779 13.2887297954
24.7178184968 15.9736021892 11.4810419409
22.4523872872 19.8871244436 8.6174904602
18.7350393175 21.4920308687 9.5229053856
20.7184980562 20.3650968552 13.4168280677
20.674044258 22.3548615328 10.6945147573
17.593291252 17.9245790239 13.4305451117
22.8866121443 22.7451041983 7.5802140905
19.0577723318 23.6645260999 13.5062575775
17.3139812164 22.5683037301 9.3653097629
18.7955005789 18.2996675348 12.5851195607
23.6149507623 17.9346832528 9.2701093326
22.8309014142 16.5229486903 10.3284690939
25.807080976 19.1984897379 7.5223980591
25.7330667064 21.5720184651 9.9723375156
22.9212792018 16.2169932352 12.1036610695
24.2402298416 20.4921138399 13.9174872423
25.3655041803 21.7272491186 13.3455747623
20.4535256533 15.9007185572 10.9367582813
24.3733819976 16.311395156 9.7614822086
26.5887811224 23.395543893 12.1253489408
27.2120678004 18.2595494799 14.1817440279
32.7712903297 20.7466263166 14.6099270926
34.3925281449 20.6139458493 9.909173767
26.0715017311 23.1866325252 10.2733254307
32.6153040816 17.2077344339 14.4254638481
33.49361457 23.5602308269 13.1285258469
27.7331462052 23.4982887299 13.1197951303
32.8389179408 16.6309168171 7.8206125586
31.4161712113 22.4307107951 8.459471412
31.7941562931 21.7969952465 9.9306663496
31.6963917101 16.324860324 9.049796368
31.5355638768 17.0087832782 10.5687576612
33.9352985304 18.1137211498 8.2997053675
28.8130612108 18.7892830676 14.6322237677
34.2622150584 20.3270411218 11.573970751
33.7761704753 19.8046730926 8.3383631073
33.0963727566 16.2330830371 11.0572549515
34.2963003168 17.4724739296 10.9611796491
30.2027321666 16.0957019489 12.4882073514
34.0319450789 18.7132586978 12.1024982937
28.6166835856 16.2460066286 10.0644098366
29.8972112403 16.9097893164 11.0677298406
33.348725589 21.5296056744 11.052297102
30.990097554 16.7253935571 13.8694982342
26.3626157431 16.8693329301 13.7346688298
30.9613245519 18.6711032629 10.9313201568
27.392945319 19.0260408858 11.1907681977
28.7221191984 18.1158935094 10.6512426432
27.7284208404 20.397615046 9.6237660613
32.7394665565 18.5772251907 13.1658404157
26.4865885186 18.1449713111 12.4848832957
27.2186024111 19.9145929344 14.2704450112
28.2116113676 20.3693479959 11.5442985555
33.0062274444 21.893569665 12.8594023238
31.3562712894 19.5605832582 12.0963357286
31.5592756422 21.155597316 12.9863927685
27.3635780803 18.979007121 8.6604267026
29.9539735678 19.1026789063 9.5508997934
31.1845562301 20.1812461036 10.2076039175
28.1402524075 22.7565352964 7.9668448141
25.8807550692 20.9007016636 14.7260521256
28.697081869 21.6834180588 10.3979346367
30.2068026341 21.6807296385 9.8072430579
27.2460222443 22.1990970733 9.3293332147
28.7443125194 21.1368102734 14.6417627646
32.6100637692 17.6187850327 11.813885422
28.2942706741 20.7428496851 12.9547659771
28.1350632384 23.3646013497 10.5744626368
2.489330479 2.3806103147 20.1357117562
8.2716206047 2.5481699387 20.6384289185
0.243933331 6.8313214783 16.3073134138
7.1109219554 3.6511744732 17.8146570395
1.0330089364 5.662961062 19.1442227125
7.1970528909 7.8080680121 18.188257155
1.0852918778 3.5180136629 20.9819543696
4.9661785421 3.8025530685 15.7531915254
4.4363094987 2.0403156278 21.1369432399
3.8249943376 3.245461534 17.8994128298
1.095795973 1.2769550064 15.1430937487
1.3540236186 2.0632376571 16.5645782501
0.3366862878 4.3902135368 19.8173633277
6.4154100804 2.4311414089 16.3954124226
5.90305735 7.9179046054 19.5220172105
4.8659681223 2.2460789654 17.1518586004
1.5435896048 7.8084032302 17.051942908
4.4703652334 0.7531448182 15.9090473629
3.5105089333 2.9765942439 16.1742828361
1.1158633971 1.0020523517 19.5157897615
7.0334351624 5.4104320873 17.2356217759
7.2297897098 3.4898799296 19.5815876607
1.0649508024 4.6870068714 21.9482356091
8.2629758325 0.1603470206 17.1907588094
1.0903167486 6.6922726955 17.9842691654
1.5331847693 7.4954436471 15.4416924619
1.9297543086 0.0970300895 16.4857180037
8.4147698873 6.8155118221 19.8648465081
6.1433440059 4.7527078636 18.9034255476
5.3352068943 6.3164019165 19.04669741
3.929366386 5.3015673311 19.9519092203
3.536523289 7.2368064556 16.9087372883
7.4678654702 1.1257603884 15.8207554131
0.5201279842 5.6435018661 15.3216418569
8.3818592567 6.468748117 18.2301516169
7.3271675773 5.2895889608 20.2589153018
0.7444557759 0.9144859803 17.6385281563
2.9791694448 3.9470794271 19.4119325843
7.3610118537 6.9352547753 16.7190074153
5.9496577215 0.5418529465 20.1643939811
6.6254952602 4.1749787658 16.1032980637
12.346853443 3.2249768348 15.0310672377
9.0216853204 5.1171209872 17.4397261271
16.9736956797 4.8470467962 18.4798325435
15.8167927711 1.2440041108 17.4774613155
16.9171823185 5.0452592238 20.3536966449
11.8589066478 1.566004571 15.003598525
11.7166662921 6.2790872299 16.0105843538
11.739779081 6.9560786053 20.2268348727
14.2658845374 3.6574126388 18.9677864961
11.8335060432 2.0078264592 19.4076723893
17.2064954601 1.0502807291 20.837864898
12.5848220745 3.439786294 18.9742299607
15.4645601488 2.8907357981 17.4856368463
11.5807509233 4.5682092725 16.1789377429
14.343382955 1.6181486636 17.084233435
14.1157292873 2.3892907849 21.726643737
15.947650806 5.8161191136 19.4289389058
9.964805669 5.3210765799 15.9495373331
9.1297234758 3.9977709012 20.6647221037
9.0457457469 5.3427008399 19.6449715147
12.5876356628 5.5513699759 17.3929396924
12.2932054922 2.1892510245 17.8001452938
16.7889246115 1.4059624715 19.0420254415
17.0599243094 0.9951005081 16.0692378902
9.1341943842 1.2777463348 19.3552970175
15.0790392158 0.7910093907 15.8843472402
13.0391289334 0.9402643467 20.4606219005
9.878091651 4.1630132223 22.0634555355
13.5571051871 6.4996132584 16.3833396157
10.2517314579 6.4268584327 20.6271709442
15.6081792367 5.0313765443 21.8071190225
10.5180526252 0.434012268 19.6365781953
13.1763037014 2.7397934256 20.3788845649
15.0917465171 4.299469936 20.0881215291
10.7178543468 0.2583520911 15.3801906628
12.2185217198 7.3361106615 18.5554343272
13.9537516968 2.3984843897 15.3900983082
11.4221213832 2.6749615839 16.4539929379
17.205470554 3.2193461082 22.1179254506
15.1641908799 7.4866157597 19.6467266642
10.2435727341 3.925712446 16.960566242
14.8478947002 5.3775184249 16.3112139577
15.9983899676 4.2982498372 16.8721797669
25.3051803097 6.7840827813 21.8818933399
19.7849431456 4.5323795059 21.9668194982
24.0129892566 0.2107132854 21.7516411814
23.1063397582 0.2538668866 19.1180951882
20.8875762265 0.0829443652 21.4280383818
25.848415187 0.3411389702 17.7113366069
18.0762836433 6.0553617992 22.1291868729
25.4369591727 0.5510698196 21.3238398776
19.1657796449 5.4903745382 16.7050479597
18.9405661964 1.3337407569 20.4703608055
25.5716901715 5.0623822517 16.7447363061
25.4963781395 2.8241474544 19.0113351683
21.4942461147 0.5505467329 18.2767005992
19.462848808 2.6629077541 18.0749950366
17.9919959285 4.3102899683 16.1485352497
20.5431035463 1.8443682533 20.8486775815
23.4002394155 4.2599677233 18.7845231324
21.9623326268 1.992227638 21.8062742714
19.5152237866 3.2651263078 20.8111254156
18.3480797683 1.3820572478 17.2308996968
25.1554489771 4.5059005525 18.4958509561
25.3127290715 7.3469289836 18.9855488027
22.6532618395 0.6296728387 20.8692969502
21.8623813965 6.5397822132 21.317517707
21.2304321759 2.8507913106 16.2161517246
20.4755583898 5.0498415963 18.0032782088
23.0885367713 2.2277296564 16.3831599782
24.8494233159 3.3550729066 21.7618699437
19.7085498445 7.0971282036 20.6132722155
21.9139921958 3.584731408 19.3334118499
24.7285899465 5.0834690971 21.3538859972
23.5710042601 1.1288933513 17.6171685934
21.280458106 6.0085979374 16.7002882362
22.3656373626 4.0231984813 16.5979558275
23.6893398625 5.4385237592 16.9432527901
21.021960343 2.2233415016 18.9981170377
22.4556691728 6.1028319908 19.7125471074
21.3590484378 6.8008449779 18.306233795
21.1687593536 3.285323613 20.7936918989
18.7079309414 4.2847783264 17.7749978021
18.6050481205 4.9426634135 20.5049257212
17.7639202414 6.7513842249 17.0393836261
21.8477739407 0.8618899502 16.6438471457
20.9116185511 3.4695037875 17.776669234
23.7808263013 6.1589069579 18.7966553521
25.3782840296 2.2236524191 20.5734716124
23.6582729813 2.0658782294 20.8707191547
23.1600192471 6.9737233945 17.2285676442
29.5817880004 1.2426371943 21.8025027805
28.2692059602 6.1035478374 17.6396743117
32.3491328387 7.3094657074 21.8229808874
32.2438538764 0.5278424216 22.3098376795
30.2103314637 0.4034488734 14.9100936771
30.5482163857 2.6743375643 15.3424237841
33.136675525 4.2514409412 15.132636997
32.8723242684 7.7817522861 19.2815212498
33.8802744649 5.6114315215 20.5316352977
31.8049648629 1.4328083617 16.5866598498
31.5490847317 6.9168467212 18.7690396674
28.2486533658 1.418274206 18.8665556969
34.2766023639 1.8304797572 21.8914253918
32.2349830927 1.8809929618 18.3133841135
29.2874514147 5.5006498199 14.9330959522
29.5896560645 4.2436726156 20.9295047378
31.5149778707 6.4274024594 17.1546855851
32.323302437 2.5295863698 20.0897372518
26.4622914413 4.7260936864 15.4386420147
26.6546485577 4.059250447 19.1557272014
26.4927532935 5.6055137267 18.0781441724
27.0602457687 2.3431669733 19.7239460436
25.9665282502 7.6406193039 20.6067228236
31.279854588 0.2302414743 19.5760550817
28.9027863754 7.434939191 17.1081742752
26.6417869941 1.7323410038 18.1230307971
30.0495734745 4.1152145013 15.8114302221
27.5277168029 7.0402360136 21.3871541826
31.5832090909 4.026603485 21.076498988
31.1726189534 0.8070503572 21.2043347367
34.456274253 0.4549235741 20.9662292779
29.9514838743 6.1215398011 17.8805138169
28.8454018308 1.5165388346 15.2684462584
29.2904619375 0.1360206167 18.3844661275
26.8758518978 1.8382003619 21.3990764908
32.6524122893 4.2414962419 19.3142284188
28.5584256163 1.8988958332 20.5244550582
33.8049868558 3.6055443048 17.8718206591
28.1978792059 4.6129837365 18.3961167569
33.5520635766 7.0259000491 17.4802746
29.8781899922 6.1613631938 19.9616408933
28.7798022561 7.1514219849 20.4824862861
25.8648933024 7.702510905 17.5231052475
30.8614456099 5.0584584456 16.8752613315
28.7928785942 3.1898414027 19.1447570313
28.1963440394 4.5707530014 15.9024367369
31.1512484607 0.2475777856 17.9302799376
30.9438779394 0.0158804872 16.2308656768
34.2701586044 4.3540460006 16.3953006343
33.5347184573 7.2513519898 20.6589062007
1.2838982028 12.1610203606 21.3517044531
6.7250943275 10.6554997929 20.59880163
4.3766259937 11.4939216099 22.2709290549
7.5680285253 12.1896733297 21.5217403768
6.317571879 15.1781231592 21.8804079945
2.722235173 11.5498594028 21.699695006
1.2804452809 9.5749623269 17.0486956387
1.2529737205 13.5792514345 20.6024734111
7.4320412113 9.8500171446 16.543350627
8.5519683959 8.2715191873 20.5938675919
2.3058521485 11.0604129543 20.3643538958
0.5953917506 10.8359527397 16.364058123
6.8439939541 15.6309898144 20.0933723228
8.1703912645 12.6210247163 18.326849272
7.5092507911 15.6398479098 17.303041131
7.6946777338 14.0156297615 17.736235605
2.6010831063 14.68631871 21.8688552454
5.6101125111 11.976582813 20.8085273235
4.6475760401 14.9837789422 16.3553618324
3.9294465895 11.2409326346 16.7528667651
4.9251567291 7.9955935788 16.2111806292
4.0183993346 11.9315188918 20.2525357198
4.639249311 10.4326422692 18.1052671835
2.2089235991 9.4582680561 20.0409089237
4.4050894089 8.3664562435 17.9054625176
5.2128515033 10.7263809357 19.5813800335
5.7629859496 8.8794232352 21.0539467579
5.697496399 14.6043573834 19.4421907828
4.2959203252 13.7105828005 19.9446259984
6.277346372 12.7596214165 22.2583829456
7.5155450595 8.4290373355 15.5573181965
2.3500181009 11.1224055794 17.2591323784
4.8627225412 9.0651019284 14.9378116939
1.2158052254 14.700867729 18.9199996654
4.1585616877 9.1530687056 19.3879261289
2.1241841289 14.5519691764 17.2546047731
0.8687087161 14.0687349437 16.1579035806
1.485410246 10.4029605778 18.6800123436
7.1027323271 9.0855483612 20.316210659
6.40397142 8.4499586445 16.802703495
4.3914625816 13.4685090873 16.567581641
2.9262625563 14.4413208436 20.095052721
8.3918053788 15.4485975631 18.8850884606
8.1552784567 10.673417413 17.7365533649
0.232149725 12.1568097226 15.5849876945
8.4446851357 9.6221858097 19.1331334912
8.1627946078 14.4408912491 15.8756272826
5.1583159239 11.9248876698 15.4562250196
7.2004754828 11.3358008508 15.5231903544
14.3111268739 15.3724726267 21.7324038878
11.0698142449 12.6872035031 22.2758789224
11.1077803037 7.9754719972 15.0361541921
10.6115832638 8.6961407399 17.7922050379
14.1155489556 8.9050049251 20.6799980256
9.4111682326 15.1692819065 22.1287457494
14.5046999326 10.4356645748 21.785419596
9.1623575294 13.7954684577 21.1221271852
13.2440964427 11.7833116667 15.1708210139
10.1437037318 15.5315425533 18.5859855968
12.610230175 15.6164100842 21.025287051
11.4181634669 9.4106962051 16.4346088395
9.4665899916 13.735245124 15.1646322794
16.8574532099 15.2279197928 16.1593854766
15.1871976419 13.8880907217 20.7416933967
15.3466491476 14.9324786677 16.5163444552
13.688400309 14.7137071793 16.1405220475
12.3905736705 14.4951218433 17.2236929236
16.5687520826 10.0925661223 19.885064319
12.2537173654 14.0481048327 19.9839681757
10.3261072316 14.1762286393 19.5275006148
9.3701055468 12.5872611976 19.4799135963
13.2816328352 14.1962906491 21.2630645225
15.0489373085 10.1651662731 19.1685051827
14.7126517144 11.5630056929 18.1608966733
9.1005181986 13.4719835851 16.8639796176
10.7785352592 9.9254107432 14.9455146348
17.1445530642 12.4835930893 15.9296375111
11.463804944 9.7403730423 20.5462684954
16.398209931 9.5553936761 16.8514603582
11.3158776455 15.8614694392 17.3058427144
14.2674718481 11.7997908421 16.4407040382
13.9044548898 12.8556437271 19.6295725772
15.7590028013 15.280739884 19.9511536157
16.26067773 14.7653382796 17.9843777585
9.8376062298 9.2851386342 21.4069669542
15.3096357614 9.5516996837 15.6030248291
11.6482179018 10.5303614624 17.8236654698
16.6534726347 13.2964713764 21.7840681646
10.7850217419 12.9228420716 16.1610543952
9.8132640503 10.4215540697 18.4167220425
15.9670643255 11.4481645164 21.0893945491
16.4313818012 10.6410982592 18.1188890168
13.4143173913 14.2267511038 18.7100812826
14.6538811818 15.517252474 18.6582991231
10.6793029952 11.0861724899 19.5680686133
12.7596278238 15.614989074 18.4741555404
12.299322548 8.7919528293 17.7050943671
11.8192950434 11.1661882914 16.2433510417
9.9921877881 8.9655190392 19.4208457189
12.5306663355 8.5926582611 20.5790679563
14.7931447267 8.8776943435 22.3149333001
15.4367208732 12.3216352591 15.217173233
17.4319288299 10.4521458171 21.3605661909
23.7312891968 13.6519722874 18.5903956353
21.1756506933 14.9825565081 18.1345125601
20.263176053 15.8263092439 19.6946922877
21.0725780488 15.1178534502 21.1174317895
25.0796012541 9.1164698394 15.1318712419
25.0719358666 14.3140046312 18.0711641962
21.8513294943 14.3323014687 16.6692924024
23.5182729945 15.6037271832 19.5605894905
23.8756320606 8.4792073978 17.8395765695
17.7271350222 11.7174641865 18.1675869006
17.2777048979 13.3329395509 18.7204056532
25.0041359807 9.2839983254 17.1049789877
21.246264634 13.3187041608 18.311439672
21.0170132753 12.1643523804 22.1458095352
22.0194609421 9.2982162966 17.0409204855
18.6828787489 8.0563019808 17.5118430303
23.1139678194 12.4457690648 20.8267277919
18.947202107 8.3452317884 19.3111757005
25.7949896363 12.1954385338 21.8860126901
24.3981454797 10.572127162 20.7267779359
20.8469802571 8.2175141336 21.6080962366
22.8231668156 15.1999608212 20.8470100396
22.6586773201 12.833840978 19.4128199421
20.4421416391 8.1185903137 18.3365381948
25.3251561934 14.3380072366 22.0330252685
20.7683434587 8.256034378 16.6113389616
21.7982680317 13.508586877 21.3199433875
17.7941256859 8.770711823 16.3781369685
19.7630716532 10.9264486001 15.9625681986
20.8012484367 11.5247936735 17.246904081
18.7951246557 13.1052969795 18.2641409467
20.2400234286 9.0188224445 20.0156716933
19.4925000283 9.2469212538 16.2748043918
25.7821201438 10.9291315851 17.5306896726
24.2301737784 11.6928021549 21.8887084897
20.631690933 11.872646323 20.6027382342
20.4731294529 15.4695170229 16.538001885
17.7295349368 15.8116130302 17.6952037693
23.9077163964 10.2825670827 18.1627278178
24.4216917375 15.8048153428 21.2644143227
22.2189628294 7.9771738049 19.9609418548
24.6700555284 11.0153604613 15.3759873153
22.0655447468 10.5135501078 17.9966293219
23.476298154 9.05964057 20.6185553226
23.9360781317 14.6394587358 16.7203900793
21.3769461392 11.6516054332 19.0969910202
21.4162017089 12.8759674978 16.1063315724
22.9573724047 13.5439523788 15.6784079758
18.088204139 9.7074041292 19.9644902612
18.7638210423 12.4549821118 15.0432413578
19.4687592214 14.6290057935 18.1428059552
24.0367655569 9.9758316047 22.1713264509
18.7374044268 11.9797440517 16.8737331983
20.263112145 8.2850643149 14.9427189957
30.6411334337 8.1061909141 21.6004093899
27.2904596732 11.3661040688 21.5578968657
31.365530092 12.2752124749 20.2022011882
32.1008318261 9.3580928372 22.1447560608
29.8647218969 9.5421901746 20.8713757401
30.9490027921 12.4041121523 21.7775931479
26.1915996823 15.375644127 21.0657220359
31.558458333 15.1486926023 19.831497935
27.9102192254 11.6736720838 15.033349887
28.4684413863 15.7687224765 15.7876703889
33.1283028456 9.3798566755 19.2525702025
26.3921209562 15.3657765886 18.7558301057
30.7906368996 15.4280471744 18.0431789211
28.0020628088 9.4651700361 15.6108471201
27.5605524208 15.1905606506 19.9182716675
33.9656986578 9.9173677929 17.2643173267
33.1026974463 8.50834628 17.6940991171
28.0672599403 9.6839963025 21.6360056386
33.8187003434 14.1498626636 16.3397491315
31.9220783018 12.6986415754 15.1414802441
28.5485127618 9.2484156551 17.7327412354
33.8767505634 11.6149047108 17.1629519207
34.4200933565 11.2245196608 21.5190101777
30.1740106842 15.1377392673 16.4907214903
26.5577143744 8.6949160039 15.4725256403
31.2229033662 10.6709819361 21.2074387483
28.7811411587 13.6822045849 19.7542687927
32.6811690165 9.079519266 16.1859986958
28.2325593501 12.7841174061 18.4065240266
31.8276809605 11.7144828941 16.4745379855
30.4708082866 9.3260104818 17.5599789653
26.1501597167 11.9098139276 15.5631643715
31.1555067886 10.0251016017 16.0210958423
27.8510695397 10.2155688991 20.1522173652
33.228870717 10.2407612262 21.0990699869
33.68593392 8.6017473041 22.0627445207
34.1917717027 13.6634704471 19.6011894859
32.9482595093 15.051186838 22.301695746
30.5625676442 13.8108335918 20.4190423506
30.2087199589 11.1106917739 17.2258645257
29.7965502028 8.5600326268 16.1261438633
27.4113202619 12.2371002039 19.9678548137
26.7578915646 12.0103561198 18.5443778845
32.426470856 14.3841825898 15.2375960128
26.3802594932 15.8422775408 15.1215187548
31.5882020551 8.8717821634 18.8163729597
32.386667485 13.5079738904 19.5454331555
33.5073898856 14.3737754336 21.001743396
33.666196544 13.2049075462 17.885907609
26.773361817 9.7505673675 17.5459987354
0.0035045463 18.6483636224 20.6762951173
7.7021652146 22.423676742 22.1695312997
7.6126995775 18.8216418137 18.0770083878
7.1803325963 22.7771533627 16.6574226035
7.124450902 16.6278959537 21.3356151454
3.5632687598 21.309576245 14.9548393816
5.4588811648 16.3235440732 21.2176287227
5.9621968868 16.4828460557 16.8610176062
5.0377876013 23.0263280992 19.5481735643
7.1969718484 21.4597566742 15.5913219001
6.0417463818 18.061476237 15.7484687575
2.0799662947 16.1340768455 19.3533668755
6.9986218639 19.3941071743 21.6839297371
4.5558868642 18.122705803 19.7243246604
4.1285337003 21.5876517351 20.896221209
7.984180703 22.2910953776 20.4425961548
3.6848954164 23.150500388 18.5168560238
1.5624343113 21.0461804737 14.9850891222
3.6423967023 20.1914335176 20.0327616193
2.3402205149 22.6033035509 19.3093736987
6.0302860419 16.058159539 18.5883617635
2.5406443946 19.0415321638 17.3536502242
2.8743631499 22.6139915427 21.0879386761
1.4036702506 23.3364847395 20.4842182883
7.0124411956 20.8299298337 20.9214253165
2.8035435664 18.8372683464 20.130939566
3.2506602344 17.5152242003 19.1038459148
0.130283173 20.8504848563 16.9907953429
6.8448280973 23.0790662097 19.4246801971
3.4341548342 23.1427035281 16.6448667943
0.9783480461 19.6165874891 17.9161811789
3.0328530128 15.9640864135 17.0320821857
2.7392305026 17.6903656291 16.2458601842
2.3798251672 20.0331314867 18.7926979658
0.4641705881 16.3291765558 18.7416321374
6.1259895415 17.9729907534 21.1487375853
4.7321792208 20.0919063596 17.5993454686
7.019008798 21.3432823116 19.4146142805
6.0638664976 18.8653704679 17.1374625468
7.2841796263 16.0061193717 15.5591329624
0.8962907345 19.8775428519 21.7521276755
1.8536948024 18.6065199671 21.3372262921
1.6867600126 16.937114632 21.7948377838
14.7623492623 18.5082937775 22.2366041606
12.222999031 20.4305002024 21.4002811357
17.2130649226 18.5623464987 18.2361146008
9.0320181989 18.2877781848 18.1077201131
12.4263725877 20.433176596 15.0642791883
13.8501432637 18.263869796 21.0022655672
10.1492942297 17.4488689415 17.3231141184
14.9520552625 16.843233571 21.045388731
12.3443864814 19.0808073703 20.4645128344
12.2165005685 23.7562711457 19.1351601821
13.6087056985 23.2285993667 20.3650879879
15.8909276537 18.7580432283 15.8462509648
14.3794814863 20.2588716453 18.5513917857
14.4516115454 18.0752872471 16.7510481852
16.7566962066 22.5767008782 15.0668559351
15.0100513804 21.7950858791 17.582126763
11.0821445881 18.7565783285 16.149528356
12.6979875246 18.7254692051 16.1502137633
10.9478424765 22.6045289045 19.3479687164
13.1579042762 20.4063788802 19.8381228361
16.7909336663 20.5871815133 21.2911407986
9.8981303702 21.450354678 20.1743630416
13.4599603751 18.8597856884 17.8173314827
13.9734993426 19.0096302324 19.4727938471
16.2033883274 22.2074080025 16.7141309303
9.9915107187 19.8975229047 15.7599723316
10.8064230076 17.809215345 19.7017797702
10.2835980806 20.2390567283 21.2538089699
10.3990569909 23.1789925561 16.8320642684
13.0430890318 22.0828679508 15.5606433004
14.0429639157 22.6844782623 16.7307649369
9.0457384696 19.2804566851 21.5870611406
10.748148546 20.8625536843 18.6432142439
13.1362765574 21.7387871948 20.7410659943
14.110838402 17.3647816286 18.2994707588
16.5945337443 16.6858225422 20.3809810174
9.6505602698 21.5564395407 16.9795412219
10.2814073757 18.0148225349 21.3327921192
16.6608786769 23.3176592215 20.9063195869
11.6760210475 17.0147847357 18.5047648817
9.6085229272 19.913955451 17.3797493745
21.4109289542 17.5915419358 19.5096404985
22.9808230862 20.2818262643 20.8457883542
18.1967835055 23.3189067606 15.182440531
20.5646208962 21.9592291235 21.6085640114
18.0039318774 17.8108785483 20.0846279469
18.1573079356 23.7821323895 19.9105145992
18.2813925397 19.8385029098 18.3422777684
21.4953846798 23.2151644918 16.9776401257
19.8987587564 20.0384381506 17.6569778794
22.4270337127 18.8771964841 20.2764137621
24.3823158988 17.6852373557 21.5723943301
24.9061047367 16.1367467787 18.6422439755
24.6315630907 20.9840759641 20.4791438928
19.3042710142 18.2044908902 15.8872295602
18.0029131087 17.2633458526 18.4439524149
21.7559228864 21.5485737071 17.2738534897
17.8722165763 17.9838499258 15.1025267225
22.9610044601 17.3618908273 19.012930678
23.13968992 17.4729972955 17.1444468478
25.423586632 17.2466228556 15.0965947232
19.5021365453 17.5661272546 17.7423458206
17.8457887909 21.9846999771 16.1828711502
18.578784478 23.7463464741 16.6967466665
21.7948717514 22.6914634258 18.7018210663
20.9749904058 17.7053344105 14.9326844826
21.0374570621 20.2546982322 16.6523941792
24.3887236074 20.3013225492 15.556821036
19.1219213516 20.3904085624 16.2023857717
17.4998811969 22.0635178801 19.8882219792
19.6920072616 17.6295297955 19.5519922122
21.8840427247 15.8687720434 19.4761133643
20.412702233 18.394446243 21.0090323711
24.0442030815 17.946635735 15.6082538071
20.7383803708 17.0563771759 16.3988684
23.2655336193 18.9472690785 21.8211005927
17.588467641 18.7931007911 21.5198238904
18.7771157911 20.9326124816 19.3165738668
22.9271120063 19.0877368594 16.2986950314
24.7455036975 22.5451392239 17.9221533056
25.1207328401 22.667129266 21.029944359
22.9298853528 23.1876797738 15.6451961269
24.2785622944 22.6526493192 16.4966853378
25.2392486835 21.1198866484 18.7945833843
32.5976319926 22.9749932542 21.3602726387
34.2059641536 22.5718647563 21.2465921357
32.3437795463 16.5448036737 20.0925262144
32.1244394336 22.3538842425 18.558661011
27.5320506656 21.4965909829 15.7093912222
30.1581640534 17.6067567016 15.1368599731
33.4731343843 18.9170140259 15.0856935808
33.7618251042 19.1048315254 21.9845394994
29.1881787362 20.8841652114 20.1579932043
26.4166996113 19.8919631008 21.5309530849
26.5912996885 17.0699552334 18.0416506094
34.4448796943 16.0365050608 21.4966166877
32.1724229916 19.5617614088 21.8345930095
26.9630994723 15.9217121038 16.8109374409
29.7722861341 17.9332889702 19.4453494137
30.5035184375 20.6577488793 16.9174675133
25.9969896098 22.8196637021 15.3742624551
26.2467441184 18.4144673029 20.5514750453
31.2562769198 21.3271747211 15.4428080037
29.150970939 16.3624418955 21.5751625441
27.4145831634 18.4375253735 17.866464074
26.2694233827 21.3777343703 20.2676237891
33.9756377928 17.0586967613 20.0627626438
26.1957567173 22.5950467212 18.7679503857
29.0655934517 20.7067280551 17.4948277281
27.6198662926 21.3463706825 21.2779395043
33.3341679997 21.6329759646 17.7581562589
32.1085573932 20.6682757016 18.6512286551
28.9259935794 22.2767168185 18.3097745697
31.3761654156 19.3044061062 16.0064992498
29.4199256275 21.5593466884 21.8731813719
34.2532254572 20.9875436045 15.392341196
34.4412472614 17.8818082431 17.2039013851
27.7130357271 21.5900123337 17.3149601158
28.3890822118 17.4536418187 15.3760249842
27.8321850093 17.989889498 19.5080613395
32.832098237 18.0674529107 16.4369951608
27.7114665932 19.9504466259 17.2324723566
29.0638257246 19.3457712033 19.9898788844
30.1901420031 17.0619184463 18.062624228
30.4218403211 20.5849554918 18.955404932
26.5953798782 23.0356508627 20.4443745621
29.6517692491 16.7786280192 16.5178580189
27.4502084797 16.7342709068 20.9999876707
31.1309749408 17.5609253417 16.6623419084
27.2926842796 19.6809175166 19.8980910959
30.8496999901 16.6692521009 20.9940132151
0.3521499843 3.3786776148 22.7052063235
0.3120686071 1.9246191674 25.4678762044
6.7931371692 0.1302266276 24.7556967105
4.0907310608 4.7897720632 25.8581224373
5.5979857939 7.7802100786 25.6892171817
3.5666548027 7.2351728438 29.6615688204
1.928903853 7.650026731 29.4679592237
6.0388361546 7.4005157311 24.0749717796
8.3822715998 2.0876206633 22.4356317119
2.9596882869 2.2306115328 23.3242240172
2.4787299934 5.6020503133 23.2046608259
5.7624019647 5.2199635996 22.3400118741
0.0120790028 0.8471851022 24.2113408813
4.3993136524 6.42058304 28.3563875684
7.7539191587 4.1721982656 29.0224976215
5.8418017469 3.0058514166 25.5481825218
4.403745055 1.4287405517 23.2207527926
7.3052430082 1.7114043688 25.31805554
4.104768209 0.1281951916 26.4286659169
7.0825844692 5.2707854481 27.0836404245
7.1788553047 5.9862338545 23.5607782277
1.1769255248 6.6980146642 22.8573727609
1.6055613017 4.2398745847 27.4291141747
1.4567422994 1.7290754535 23.6199108912
2.6185474569 7.4256429312 22.5981805481
2.5958929894 3.6808874761 28.7214163836
5.8777182474 5.1992537167 26.0287973897
2.3862994397 2.2498896644 28.0210426574
0.3542563635 5.9946383403 25.7698881663
6.3334346171 1.4503040061 28.8587106879
5.6033742041 2.0372685725 24.294541682
0.2697479254 6.8236460261 24.2436912062
6.2911605173 5.0045738856 28.6586359803
1.7246888462 6.0032522063 26.7657475049
2.0116846449 4.5522751767 25.6869748693
3.0997861954 4.7382168137 24.188318163
0.3992024264 3.668489601 25.9365886009
4.1592624458 5.4654613199 23.0442070052
5.8008148344 5.582608702 24.2350974406
1.727548063 0.8612407195 28.7374416591
7.2280835393 1.2834580208 23.4957291579
8.0237273304 7.0080273015 27.7385195828
1.382444285 0.0594847646 23.8412016184
3.9550655461 1.9968686329 26.6758284165
1.2663000951 1.6244957887 26.8713239641
7.6551374425 2.5502090552 28.2555456863
8.4129262221 1.987113382 26.7888603399
16.8896006908 7.3243828078 29.4940868289
13.0967959956 0.8128515011 25.1378260697
10.3422508742 0.2636675769 25.4832793661
13.9790398667 4.5260537121 25.9875290532
12.4560700191 5.9632974153 22.8239604827
15.624608888 1.3462627392 25.7967493749
16.4328601842 0.3165402441 22.3415387875
9.2057159821 4.257651182 25.1071553868
17.1607351677 2.0418687062 23.6176748755
11.3922910455 4.6082317803 27.6480129039
16.4540233589 5.824557767 26.7437419881
15.780991508 4.2783814079 25.1498090922
11.5578888491 6.8098666217 24.0339630898
14.5753486313 0.1404156842 24.8090864459
10.3420634399 1.7457994683 24.4895030127
10.2127085431 4.7427900408 26.2241831173
13.1760802237 3.1582960321 25.2810701562
16.8112356033 5.2870585867 23.7118824757
8.6391629273 5.507764377 27.9423861344
11.0616147964 0.7368947427 28.6370130145
9.2720795138 5.0219517113 23.340476809
15.030250116 7.6870453075 28.8726958227
14.4934645442 2.1995211239 24.7940536159
15.7010180005 3.7689443186 28.8664073628
10.2691067631 7.341916815 25.2909835801
9.4245855508 4.246876909 29.0107607724
11.288065867 3.8085733164 22.7249215275
13.2552109029 7.7452678449 24.8845736712
14.0635703968 6.1168433662 27.8137724264
10.0865397972 0.3162176744 23.6909056258
13.5092776314 7.2824828371 26.4585855423
8.7474895002 2.7233014234 25.160135462
15.397349666 0.9002846456 28.0161518727
15.2026078681 1.5789854045 22.633887243
15.8716169744 6.5441785704 22.8578688882
11.8870933194 2.8142418463 23.8218488512
16.033780646 6.2704115087 25.0558346875
13.7426150409 1.5019033058 28.0996547487
14.9378218592 0.0012033741 22.9991169217
16.7199870858 3.1103418109 26.3050683891
9.738514957 6.3552108772 22.4846157029
8.7768262174 6.7480875943 23.774488472
16.6073709953 2.5245394606 29.1935298538
15.2299971463 1.2287027254 29.7211843887
14.3168869247 7.7989261159 23.455103386
10.93758317 3.7232908145 29.5076958148
11.879038358 7.5046776961 29.0505468662
11.8016769085 1.8270477146 29.6452375344
9.6814979971 0.6919372584 27.0817820471
12.3235955202 6.0971957667 28.0329521817
10.3921012529 1.8201905517 26.2514768897
13.4981093757 2.8468995183 23.6114708755
11.8093118285 1.8888244634 25.2797249384
10.1796007384 5.8998870258 24.5785257965
15.1285246042 4.7987831849 27.6828583644
25.3374492942 6.8128936439 29.5794798852
20.6088087684 2.3309586427 24.525868103
17.2423654659 1.6912773701 25.4177671946
21.7657362992 0.4035656839 28.3488073221
19.2322723643 2.1108839375 27.6622606616
18.402673883 3.0056911294 26.2704149767
18.5603816689 5.811546198 23.7529875195
21.5603673493 4.7348896855 23.9065629223
25.155564074 2.3333576853 28.8164740189
21.2005535387 3.5184008638 27.6955691253
19.7124136266 3.5313640707 28.5667309073
21.0200320725 5.8271546496 29.3660127032
22.2070372959 6.3752385265 26.4582357042
23.408297695 7.3405871304 26.1915554913
23.7027932861 7.4738636807 24.5130669915
22.2108969659 5.7613187753 22.7487132724
23.6358552541 5.5541928299 25.746020857
24.9956745974 4.4726629354 26.3309833314
20.3640726854 3.7454380437 23.6439519329
21.5468716264 2.3892326752 23.2249483483
23.7398644524 3.5456700373 23.4596213908
24.3987136462 1.2067225467 27.7421048007
21.1871722972 5.7664471763 25.2376787481
22.8040822909 4.1609781404 28.3768126907
21.1421713811 4.4045195815 29.0857025322
21.4311294413 0.8870820951 24.563003033
17.9347267269 0.0281302628 23.6821291221
18.6422688589 2.3153967878 29.322604601
23.9349686433 4.4723743574 29.3956448608
22.5132672986 4.588861798 25.1605667999
19.338286008 3.1668635173 24.841709907
18.5307110202 1.6705774188 24.0644725708
24.6485362473 4.9288834828 24.3037696441
18.6293193118 7.5100448193 26.351550296
24.1943137613 0.0443020869 23.6982144138
24.0595648359 6.0634010743 22.8900144183
19.3375424436 4.9477751021 28.9546077175
22.7794764758 2.4863785551 24.5941363082
25.2451369492 2.9843194776 25.7085400547
19.3772051646 6.3690550648 25.0631526078
22.3832387783 3.7844424797 26.4142994124
18.335299696 5.7854580012 27.1590648068
20.7809471822 7.3977433489 29.6681346894
20.9769692037 1.3610540836 27.2642079911
31.2761515969 3.590475543 27.1633078897
30.2790769933 2.2160964534 27.1023416014
29.9162777587 3.3992798657 25.9433782756
29.1286728957 0.9683820725 23.5967980228
30.249101834 7.7831417529 23.4306829977
33.3830922281 3.9920442159 23.7880350012
32.296219744 1.7541565262 26.927603666
32.1235090482 6.6019901431 23.527951451
33.0217779711 1.5700062759 28.4404934246
26.3921301349 1.7119620092 25.3037731318
30.0947894724 7.8402343047 24.9622905001
26.3384001646 4.9781678153 24.4772887034
29.0534438843 6.5989519183 25.4849362963
27.8035824089 0.7859613677 26.4408492016
29.5651395695 1.8423730482 29.5880408509
31.9670949487 5.1652068886 24.1799251708
31.3726000553 5.8402581894 29.3499635926
28.7723569037 7.1365255191 27.5035013163
32.3522582371 4.9295371113 27.778851829
31.4282772677 4.1247600556 29.0423064221
33.8536021926 2.3844403317 27.0754765126
27.3990460403 6.8582005956 24.7097260966
27.0573732803 1.1877568105 22.8110179337
30.6569596175 0.7621795418 24.6111652876
28.20847318 3.0201098617 29.4861453977
33.6941059971 0.5709988392 29.5379261088
30.2738800375 0.442691151 26.4182406845
31.9616557221 0.4892111261 25.7901890204
27.8603662046 4.931345163 29.2148627761
27.4257121993 5.8905856957 27.6965002383
30.2826231478 7.2006541343 26.5722082967
31.9765286151 6.6155377183 27.656785994
26.1110493335 6.9395686947 26.7178799933
26.8029231111 2.7625744759 28.2527775854
31.0505831409 4.2952721629 25.4711424514
33.7624338394 3.4546374365 28.8086961489
25.9616608093 3.724075499 27.1537472847
28.5284256306 6.2371328853 22.4991107531
27.0531276013 7.1113634539 22.9801462559
30.523587464 3.9654095687 22.3820475254
26.0222662213 0.4959119921 24.1225801268
29.7398835634 0.9094678274 28.1438400914
33.8456079942 7.5956588219 26.5327188509
34.2579529347 4.1266636561 27.4600681545
28.7814091344 4.452640829 22.357952839
29.1919080637 1.7483239089 25.6963239227
27.7526589144 3.6907033877 23.709789316
27.4457069407 2.2916735826 26.5614857896
27.2209322091 5.6686542435 25.970827811
33.3983900638 5.8621794651 26.8915053981
5.6376221053 13.5073060593 27.9983817942
5.066048915 10.5799618398 25.0662111685
5.0528069452 12.2154354523 23.691866338
4.1103845583 10.0886831571 23.2453225134
0.9561203802 10.9752144335 27.5306728379
6.4818174208 10.9964823409 29.6194583475
3.8443270043 13.4070209826 24.0059127036
6.7694263372 15.2979123557 23.9768045692
2.9514780839 9.0495231949 27.5341112903
6.3660246158 8.7476444769 27.9278035429
2.7345609266 14.5958043843 26.6481919737
3.2196408565 15.1990933199 24.7137099624
5.4743064833 14.0275182412 23.2983449841
1.4211885348 15.2931543378 24.8306723599
1.4603019834 12.7334309941 24.288241871
2.5183292243 12.700226798 22.956410833
3.6791805789 14.673251444 23.1212484192
1.8511741906 10.3764228806 26.4250567249
4.480678024 8.2803863032 28.3650085989
0.9877376246 12.6418332327 28.4621003842
2.1286674041 15.1414686698 28.0154782037
4.6978708019 15.6915408539 22.37654366
1.4780284862 15.7122073376 22.8939562413
0.1881047939 9.6788609572 26.7762142413
4.5509793433 11.7018003609 28.2941448809
7.1549143381 8.025383399 26.3748509343
6.8056656154 13.6190799832 25.3975292926
8.6061785653 13.7604165923 29.7115690736
8.072279 10.0978282638 24.3833346726
5.7202110993 10.4183218716 28.1095604883
4.2764664686 14.258588948 25.7296011652
6.7515109475 11.072421169 24.8942449563
8.2717338976 13.9215358427 24.189599202
5.4500271993 8.2120039813 22.5516966082
6.8326535469 9.1651802707 29.3025143286
6.5447265439 11.810891518 28.2024136215
7.4917757058 14.2240741002 27.0135377966
7.7497058255 13.4866977292 28.3716246571
6.0144543283 14.6110881045 26.7007329409
3.637090533 12.9909053472 27.2199243869
3.654554534 11.8807827527 29.6464688222
8.3338411679 12.4196490055 23.3351012056
8.5664468136 11.9268563707 28.0874100624
1.8265861899 12.0495455823 25.9390331977
2.7361214944 9.4617155652 25.3886108718
0.3778429906 14.1658528676 25.1989153013
1.5457652942 9.4164680533 27.8634563503
3.4117815427 15.1740710346 29.2208992597
5.0425201208 14.9284501756 29.0567316564
1.8452149183 13.2779202942 27.280698716
14.4745347215 15.0905561313 25.636017391
16.0051593014 12.2756371933 25.5926756394
10.8470375579 14.2191919721 28.1242856024
17.070290688 9.1238773846 26.0169203858
15.0455251611 12.0222625908 24.0919717717
9.1528472215 7.9617032691 22.4697691953
16.5213792852 7.9984128683 23.1063741479
12.4558643793 9.2167750839 29.2579088634
16.1117858399 12.3583370975 22.8950495333
10.6930741421 10.6039214046 29.4767676798
16.6057818333 14.1866618539 29.5573830481
10.2535595913 14.4522704306 29.6094616568
10.4635604305 12.2194540659 25.2857594687
11.5091450333 13.6110618244 25.1821172824
10.2381021427 14.8687566003 26.414126436
9.8884179815 15.6447324509 28.2774421871
16.6581119342 9.540590251 22.6125929437
11.8266548214 14.8543267837 26.4216897766
12.6788524792 9.0674704296 27.6797167824
14.2282363898 15.3557894626 28.6039034975
14.5945371847 13.3882613502 25.5501556054
13.387606681 15.4604603398 27.1830627018
14.9036977997 10.3498747521 25.4146608319
9.7243661049 13.7644534946 25.277752077
11.3622988379 12.9139457199 29.1952244297
12.2302937662 9.0634504712 25.9392957208
14.8947777251 12.9465109466 27.0571319691
8.6975781792 8.4387687248 28.7907159314
15.9173027978 15.023825024 27.8371147958
9.6096464028 11.1800531513 24.0680661155
15.6190138386 9.2017080408 26.8957067228
15.1043290531 13.659730715 28.6183330344
11.4806443729 15.6505172581 22.8335845307
15.8593305214 10.4729327394 29.4867693536
14.7633685882 11.1672955359 26.931996342
14.4789422989 8.1076250366 27.2794841533
9.0028984082 10.3303564599 28.7287354451
12.6695068225 13.2820934467 22.5330305397
14.273136473 12.2377349485 28.619825349
9.3553466342 9.5305317532 23.1738802382
9.9498704768 12.2469435658 26.7485047259
11.3488780864 14.2684222457 23.5197719957
13.4361492858 11.4868779222 22.6828468248
9.4156303776 13.567979027 22.7573559889
13.3011140454 10.9443045423 26.0527470247
11.7088159432 8.5779559789 24.2962727897
8.9211165982 8.3144585546 26.8065352262
13.1677389321 13.6254019549 26.2936889174
10.1802986982 11.5509829664 28.1810130329
12.9367546507 12.1610206916 27.1650947641
23.4492785669 14.2184489962 24.5543307928
23.0282625638 9.3212393797 28.6866037029
17.6447291636 12.8397225588 29.2789425767
22.3148014526 10.9066357017 23.5501707781
21.0219047223 14.1461425154 24.5747912855
18.3459400452 10.7637171022 25.0708455478
23.8751271772 15.83123288 24.6212779359
23.7303651846 11.6940176843 26.307285522
25.2929183453 9.3595708974 28.2247697003
20.1167484132 8.7418977601 23.2246631172
17.6021093328 15.5055128836 24.9873482835
20.8433076743 14.5729411943 26.426695001
22.1099336617 11.0676173058 26.6143820153
18.3969006997 12.5463238164 27.5788481986
21.658877695 14.9237197304 29.2606773752
17.935873095 11.209876873 28.9067490303
19.5591635394 10.7351597377 28.6028944015
23.7895630466 13.5212014489 26.0016326336
25.1792879277 14.9074343789 26.7787752556
23.1576843432 10.4877416321 25.1892556539
17.9983630833 13.8543949836 25.995770411
20.9829681087 10.0041865043 22.7493560235
21.724213188 9.6929086165 27.4117578775
25.4123759039 11.2551621692 26.5544638562
18.6718630033 9.2546258838 25.9368393288
20.3028290744 9.4882391328 27.8855553534
17.7988557013 10.5792316183 23.4494062003
25.2777950644 11.0428620528 28.2800981309
20.7948507248 11.1117375211 27.6995022341
25.4956345692 11.6384549619 24.3734084789
24.6958700266 13.0459848824 24.6051925191
17.6915387108 14.4208557536 22.473291902
18.6824948178 15.6942169689 22.6478506267
19.3702544143 14.8880188707 25.4192186846
25.0045181535 8.3409191351 26.7965029206
20.4656986488 12.6972754137 24.06376276
24.7229777085 9.1007870423 23.9059749026
24.0421532909 10.8872528241 23.6179889507
20.0373279927 15.2971734153 23.8201674387
19.1369157852 8.4733274884 27.5783063704
24.5086908507 12.3131340237 29.430286202
22.204939073 14.0735763533 25.8073862906
19.4017957538 14.1250562272 27.3569758191
19.4946258847 11.4285777325 23.3685501406
24.4143197647 8.1860046703 29.3327653501
22.7103166125 12.7554587176 26.8979582128
17.6175104855 12.1343771787 26.0500031771
17.3754263949 8.7231108661 24.4064452802
18.8756078689 8.1014183921 24.1742852941
23.9945019842 8.8844611596 25.4781087746
26.7704473191 8.7088804345 24.116463452
29.57114982 15.7661882744 27.3309236887
27.4139238681 15.3343490475 28.8719348185
33.4910350301 8.4682957605 24.9546102319
28.6598619147 14.8664143832 24.4743418354
32.6178015099 10.7259048108 29.555167688
33.2087565918 9.0595178258 29.5403636486
29.1929333202 14.64325145 26.224278409
27.8131947659 9.6555709528 28.5595940944
25.9204275919 9.1687354222 25.4815216104
26.5306496203 10.8359656337 25.552253698
26.1233924703 13.5280638557 23.5565107593
33.4508901421 8.1910358417 28.1363575311
30.5809136793 10.8238999718 28.6276662852
27.9752926586 11.4792210371 29.1909651971
30.5561668451 9.4976481904 27.6086726887
29.5296479713 9.5783137126 29.2060001585
26.1608685772 13.8011686919 27.3543713787
26.3931550168 11.9916425226 29.7101023159
34.4289748538 14.181954686 28.7859818839
29.0543571144 12.3013133145 24.3988533339
32.3072005582 13.6448301569 26.5315024
30.6308957879 12.9544383912 26.3067644801
34.2327498607 10.1207125507 22.6135447686
31.5531524232 13.7858659255 27.9241931649
25.997720597 13.7129376532 29.04390647
33.6573617571 15.7576164881 29.1973164265
33.3730029391 10.9276384023 26.651997441
30.3193591274 11.3210304851 27.0727913796
29.7778321938 13.645541897 24.9672865279
32.4029494176 9.695865577 23.8004674916
28.3823426392 11.0083373832 25.4161025978
27.7941880248 9.4779994458 23.255049611
29.8331760699 10.8207357991 24.4465654949
32.8575381067 10.0147449881 27.8811026708
31.5130210531 11.0393898826 24.0951558524
34.0865643146 12.5734481632 24.4422673821
32.9120701322 14.6239712454 25.5307366679
27.8956339085 14.9379900049 27.3748214697
28.0367582437 13.5303304394 23.9557584469
33.1611599098 11.2408451384 25.0223144173
34.262481765 9.6752301233 24.2434605708
33.2545043211 14.2438161309 23.8285740924
29.0077839069 9.0625798016 24.6165199794
31.7033106504 7.9809270604 24.531207604
27.8638627576 11.207773915 27.2866549288
30.5867069662 11.9306945436 23.2903872303
31.4299008389 11.3672755057 25.8147093152
29.1031711868 15.8480820329 23.2867266677
28.842622475 9.8652920502 26.5285599576
26.5762298669 12.1992768415 27.0775055738
28.9196185875 8.7647434558 27.7251896615
31.6546505631 14.3206325436 23.1468083564
26.5926977969 10.323403121 29.6136497636
30.2926215166 13.992605474 29.7393724674
1.6827782996 22.471249256 25.1467004649
6.7989007429 19.3259073196 27.3045248118
5.4516978741 16.1606464725 26.3936995607
6.7045917209 22.2405801497 27.3936834775
3.5547700982 20.3229646958 28.1204042898
0.7038033252 16.1168505617 28.2731337087
7.4449964201 17.3954633747 27.9716755184
0.436461944 21.4221665701 27.8208383642
2.4654688453 17.8769685441 26.5660240785
1.009469412 18.3160348137 25.74873654
3.3589629468 20.8842894073 26.4777466732
2.1975277605 21.6337563232 28.0958023126
7.4647497234 23.1402967611 26.1116042325
6.4359986649 23.2698227549 23.2721734393
8.0878868667 18.8507448676 23.0930875156
8.4200843276 23.6767631579 23.1930198912
5.3916162895 21.3740014073 28.1753147982
7.6714984133 16.0862456216 22.7006409386
5.7883114726 18.6663421018 22.6376759365
3.9263906768 17.1968235377 26.7824852187
7.2900285773 21.5677116211 29.094792596
7.0424235923 17.6018171778 26.2542682068
1.5102479018 18.5629682272 28.7572149024
5.3419140554 20.2994890129 24.6825374223
1.0601258514 19.3956104453 24.4527468727
1.0786262689 21.2314414159 24.0164487447
0.6165921027 21.5403478731 22.3537900922
1.0898579719 23.7175936316 26.2744264011
5.3785049778 18.5648712071 29.7041022577
2.9816250831 22.4806593875 26.1134260847
2.2006538159 22.5497329652 22.857932497
7.4203340585 16.7795071064 24.7026724459
0.0679269618 19.7049483498 28.1465950833
6.4913180553 15.9125455743 29.0187112835
3.7589020986 21.799449204 29.1076908727
2.9723250435 23.2827628545 28.5650006162
0.3857718386 17.3063162797 26.7950638439
2.4725131224 19.3263693126 25.4044564219
7.0313928665 15.9133780037 27.0554373578
8.4794318522 19.8105705016 27.2951178189
6.8789226178 20.6677761749 25.0986110642
4.4709703958 19.4719768673 23.4307554012
5.423903638 19.5786325092 28.3612226612
3.8443971223 21.9884765852 22.4869407888
4.817308758 18.0659396825 23.9693681336
4.720557065 22.8273868358 23.5324189829
5.1067701989 17.5521215182 25.6240376658
3.8444652742 15.9113320386 27.8416334848
10.7045597732 20.7630205984 24.0060467344
15.5908161058 18.2297736953 25.1861024631
14.1873614469 18.854790733 26.4685826382
14.7699077103 20.3095237042 28.1706024726
14.1823156872 21.9514266402 24.8919010931
13.3746804199 21.2551394061 28.2823998146
15.0846935387 16.5327689386 24.73570365
12.5096348767 18.6483354701 25.6460712671
16.4584927133 21.0042797872 27.8901917624
11.2257979157 19.2909798188 26.6089348127
17.0563751442 23.5868530955 25.6316621151
10.9972172844 20.6385081963 25.6777416455
13.8480041621 20.4817208666 29.7171759701
9.0515934737 21.0917496679 26.4434753241
10.5442273954 17.1681528634 24.4246166554
14.5371603689 19.6134805651 25.1337495792
8.8394367266 17.3796211854 24.4876959498
17.2333550787 18.8492574093 25.140777051
9.1438108949 22.8364282017 26.4807106867
15.9908037579 19.7067657208 24.1303458389
16.9037687831 20.9540050352 22.9119265239
15.3257603658 22.1464497131 22.5107318666
11.0815349622 16.8100666863 28.8159157848
16.2400197802 17.9144170048 29.4242136205
12.2822291283 19.8062686382 29.5053485896
9.3675906136 18.5897824281 26.8880887977
17.0485033933 17.7371869874 26.2637092869
13.1575192127 19.2681344877 22.3644060087
16.139551071 19.2656084499 22.4826362532
13.6683156486 23.2209171832 26.1549133528
15.4038447733 16.2570414847 22.957414825
17.1764772296 16.3925994018 23.2065608478
13.1688344393 22.9039836132 27.7204989583
11.9387738453 23.4851339714 25.3519690604
12.6617431317 18.5569458526 23.9216620333
11.5236618865 22.8913726779 23.6794091357
14.568290939 17.6993916597 23.8255035834
12.1974695832 21.8635793556 25.0401602245
10.5383498627 20.5352105241 29.4833221688
13.5681298691 22.7895053486 22.5804653412
15.1747434052 21.0678727676 24.0276076865
13.1419732103 17.7594401001 27.1436098321
14.9029367981 19.1392086261 29.2815589158
9.396560978 20.1046455493 22.9961542236
12.3223661369 18.2986457621 28.6092071875
9.8932000681 23.4118761819 28.8018976621
16.1019703924 23.4713604569 27.1856375114
9.3583122685 17.4902238301 28.3115431458
23.9234878555 17.8820709759 28.1250250708
19.9471104533 16.203638389 26.6998696964
19.575127677 16.7972430787 25.085903775
22.9819723873 23.1212927442 22.9334328382
23.6431982589 21.692141869 25.8784369729
22.8350225033 20.1429263412 23.2182303849
25.3319696228 21.5493255428 25.5461639619
17.2571998295 22.4293960836 28.8010684474
25.7828488362 22.7081085231 26.9187841694
25.1462920143 16.2302379288 25.8245625794
18.9964544886 19.0111242158 22.4834785727
21.0582805546 20.1159666513 29.0340074743
20.3097141632 22.0496099571 24.3737340263
20.51667386 18.8138540485 27.2936395449
25.2002870361 18.6770598802 24.2450960021
19.1366817575 20.5655897367 23.6402296217
20.4164314236 23.4617651088 27.2278851079
23.1653263479 23.1669993766 25.9726960886
19.9670944526 20.7618205887 27.0320687206
20.2879620657 16.2480643007 22.3431236036
22.6119334497 23.6815255884 24.5723730702
21.0055725402 20.6627371341 24.2769383695
20.4382613867 17.8754218852 22.5606426298
18.5414051375 22.1289817812 23.468566126
20.9338744885 17.75635584 25.5397544588
20.5698939563 17.2060204246 28.0955806421
19.4093995982 20.3634773987 28.6786763005
20.7704302164 19.4819842199 25.8722927952
18.9712748874 21.8964020666 27.48473967
25.2558649362 17.8026404321 29.146453277
24.0568092966 17.9793330454 23.2620794415
20.7792988207 17.0098241041 23.9355547556
25.3539453173 20.7273303667 23.9480224049
25.6741013954 20.4477836178 28.3740042219
21.3371201273 22.3743843197 22.8178881734
17.511095124 17.7311189564 28.2291359585
22.003474489 18.9486824101 28.6019141282
24.319134417 16.2233439452 28.9699174876
22.639802905 20.4399221902 24.8559292638
18.117315564 17.5087717689 24.9618646385
19.0352423974 18.7518807571 28.5906194731
23.6976768884 19.6165682051 27.9167506235
21.6073625101 16.1891588483 27.0503129275
24.0991488785 21.0543005288 28.9615779251
23.5194242541 18.5142013276 24.9072960792
18.9149503774 17.0507502549 28.6055332221
17.3685401046 22.0878978504 27.0601094124
22.5887974242 20.7696699419 28.2844287713
24.3088455262 21.7515347567 23.4113355022
22.6851483352 17.098737266 24.5209894045
18.1442746417 17.8313397964 23.2039066496
20.6247332171 23.2783880194 25.5310421717
27.1101283558 23.4588357425 27.6936399713
27.8490947741 23.5989575059 23.6646497202
29.4436876164 19.9411965292 27.9284188743
26.5383097974 16.8315606157 28.867388405
32.7830143703 20.0907724821 23.2972362929
32.4656086506 22.9082526961 26.5390045568
32.3730838746 21.6649080191 29.1026953176
30.8812850168 21.2449593642 25.3715707811
30.9166302694 15.9104411946 22.9652188919
30.5098127937 16.9174907109 28.1278641502
29.5147295639 20.7540030238 23.3228642758
28.5034474243 23.2940144468 28.6866948629
33.8783742318 20.6620131752 26.8008582203
28.6076327315 21.596792086 27.5436127634
29.6351909766 17.6354198918 29.5458038264
26.5982726134 19.3350261774 27.0924865848
30.1110693064 19.8864491545 29.3567801996
26.5241881063 21.3370285408 27.456604229
27.2360457964 17.7425901305 26.59395186
33.8452628725 16.1238537551 23.1702361953
33.2291995508 20.0208621602 29.1996195609
28.728557657 19.2576586847 29.2142654139
31.8210122178 23.0128290408 28.1720686762
33.815921778 19.0489340896 24.1454307634
30.2111246284 22.9665035044 27.603936044
29.2684016405 17.3948175355 26.4559018777
33.7286933399 21.4738434131 23.6296990057
26.6328855987 16.0711097699 26.8724200454
26.259022548 17.4401454811 24.6578261615
28.9842888701 23.5873876112 25.4237680962
26.1163919995 20.1517142668 25.2656891141
32.040786367 18.8624249977 24.6010330422
29.3932648601 22.004930857 25.9737012987
29.854178158 19.4084544215 26.4883071098
34.0496081304 21.6636423406 29.4874659239
31.356076833 17.3627415233 23.9584121888
31.571730622 19.783272939 25.7299706502
28.0963142585 22.0893438244 22.7842025425
27.0373608691 20.6126258874 22.9382350978
28.2081110463 18.5514562174 27.7108958031
28.1659225959 20.5861287388 24.3392432322
32.1608361305 17.2118887553 25.5485583036
34.2968689141 20.4070594362 25.105089078
31.0454046828 17.7289517333 26.5768261859
33.5284129869 22.6121574636 27.8769274404
28.299829259 17.3152700006 22.5660134713
28.3520390463 18.6879788419 23.7323298713
6.6568163781 7.8312115252 33.272724064
5.3541943395 4.2115432199 31.6641083043
8.4951854779 6.1236967871 35.7891243262
5.630705768 7.2432759145 34.5641839245
2.3229826332 4.051869475 30.5133650795
7.0076657902 4.2015507633 32.2623569549
4.4808116788 0.7793462801 31.4300920425
4.6687191231 3.8895066327 34.6108255436
0.7735420897 3.9317791604 32.0747674785
5.5139862881 7.027495217 36.5125367449
8.0404048535 1.8174283019 36.9312038033
3.6709685089 3.8587611437 31.8898684403
5.0615416334 2.7066598316 36.0337510677
0.5859026293 5.2824114295 35.0818884427
2.3736743834 6.6059967386 33.8413716011
2.9478586036 7.1826923766 32.1295665426
7.3389079934 0.4122214229 34.0548675484
2.9514740259 0.4511186548 32.0478606702
4.5926084672 2.5814740241 31.8479441471
1.4420873169 1.7568689293 34.3825849516
3.1637054262 4.9574637893 34.4376534097
8.4897898414 1.0185954406 31.6917883832
1.6963023023 7.8540619977 31.3068671701
2.2079974881 2.9864626544 36.8258269503
1.9873731324 2.230795616 29.9172305405
7.5935535911 3.5645260719 33.8755619763
8.2128039993 1.8310755715 33.3201240256
1.0349947042 0.4125237013 30.3414074996
7.3498467119 0.6590160058 30.2255328252
6.6960469592 4.393898189 30.4105012895
4.3713135415 1.3765904868 37.0946890685
2.7928502729 1.0923594701 33.5850321358
0.9721986298 6.5733314881 30.4440059469
0.955451925 4.8834882069 30.6219870856
3.0465118134 2.1967495779 31.3330034151
4.7259097194 2.1882852245 34.320457043
8.2854310308 7.8193153983 36.5523919149
8.0756236801 7.460366337 34.2354928043
0.8074261462 0.6382864778 36.6151490157
6.5880558083 3.434661881 36.6048404576
6.8178138078 5.4172241524 36.5226785797
6.4060011504 4.0141325403 35.0110028944
1.9994164764 5.8722513536 35.4865044702
8.5519719468 4.457265834 32.8134587775
1.6913623999 3.4644994397 35.2142833161
0.642527259 4.5619828307 33.4416340454
4.436514237 7.1884469086 31.064464722
5.8578720173 5.6184248981 34.9986581265
0.9167996383 6.3282902928 32.4378286149
6.9750925459 0.4550943675 35.7725105625
16.5972506714 7.6295416939 33.795585396
16.9337349522 7.8996836828 31.5812247364
11.738313211 6.00252451 37.1126983542
17.0854009675 6.0369991744 36.7562145803
16.7348019054 1.0825124047 34.3406774843
14.6793302847 6.398441372 32.7527832579
12.877044208 5.6199214965 35.9546360797
12.0248421385 5.8623558497 30.3802353676
14.3486707298 2.7652017044 34.2576913301
10.0264566627 5.160440439 32.5513616281
12.4822414355 1.4076529334 31.3504307007
13.6284400378 7.8379195535 32.3404511374
10.8488790799 5.3303262309 33.8930657761
13.3838914458 2.1648525129 35.8000251325
14.3880577439 1.1169200222 31.0644118457
15.1660872204 3.6420579082 35.5826982683
17.1273279536 6.7743232047 35.2839068312
9.9419629185 3.462475391 30.8993227366
13.5843776494 3.7487693341 33.0266363725
16.1589759363 5.067314773 34.8664273642
15.4249384478 6.3984092432 34.33582494
12.0326268086 7.6666005342 31.7592027292
12.0138095744 0.7745114635 35.4368072418
16.0143171703 2.5775945609 34.3050370508
15.3029739894 0.5559406025 36.6597447656
11.7844065251 3.083032922 35.1904827504
11.4019835442 4.3597534068 35.8431503551
9.2401599543 4.511225019 36.3301257035
16.8475325469 3.7110047707 35.6733271613
14.523852243 4.9442969447 36.2183970431
12.8191806749 6.2933761418 34.3993677956
14.9325376768 4.9326468903 32.1323513106
8.9091177055 6.1835358901 34.063460553
12.1805667186 0.834408789 33.0360561217
13.3218279666 2.2931459935 32.2329142032
15.4629477284 3.7598361788 33.4091096981
12.4607629357 4.6250294435 34.2516842401
11.1749844267 1.8285536097 34.2094725998
10.6572312879 4.9631306614 30.7099104349
21.7588375887 2.3546503454 35.1852210109
20.168214569 5.1671252481 32.5290374829
20.9183699131 6.4228638434 31.3907432374
18.4333625146 5.3355099399 31.8530507829
22.3477282739 4.8762661939 35.2655244819
23.6434669128 7.7086895904 32.2076322929
22.4865104596 3.6573755432 34.2168912849
20.2933147455 1.2950726279 31.3291993545
20.6434209501 5.7039152607 34.5430519569
22.1116284883 1.4630122814 31.2826790748
23.9097952075 2.9289773718 33.014330308
22.3256839918 6.3235146188 34.0561457329
24.2318339664 7.8276848261 36.2261681954
24.8187727834 2.9145539323 30.3214477659
24.5237171047 6.3186992941 32.054638062
24.6942216099 1.5121727081 35.2328166013
22.3040984274 1.397648767 36.8276556611
20.4108020587 1.5452053575 34.3757922315
19.1463708794 2.4725963873 30.9050074461
20.8920050147 0.6627308089 32.8245072113
23.5673711358 0.5994033174 36.5628949815
21.9761618429 5.313061933 36.9777189817
25.3816790486 4.6650035242 32.3748551451
20.9733876866 6.8007663735 33.2684101445
22.6394685259 6.2258011699 32.397972849
19.3017969989 3.5356634895 32.1823767041
18.2189655406 5.864517726 30.0682091824
19.1105033667 2.4633531929 33.6501614756
22.5607319327 7.8434243502 35.7660637336
20.7248957777 4.5987920793 36.0919635974
25.0507247914 7.1631598655 33.877408148
23.4820224671 2.4985510489 31.3987664595
24.9003463271 4.9758939624 30.6865077391
23.3691054795 2.2899395977 34.6047035212
24.912183602 7.6101524926 31.05922632
19.4592484533 1.7424083255 37.1512407833
25.1640375935 1.9886644198 33.6194521074
25.338980266 4.9048080162 36.4217779993
25.2642470193 1.8995566175 37.0802745944
19.5776505572 0.6749859347 29.9674279236
19.0899776923 5.4696008636 36.3014615597
18.2772374567 6.9204138936 31.8073009609
17.6444778025 2.5156911661 34.6865797637
17.9299031213 5.0573952335 35.3850841014
19.1396378853 7.4389860763 30.3006370385
21.7460652097 0.5842679856 29.9300350916
23.6951413496 7.3289301952 34.7139048219
31.0377372668 2.8627734285 30.2745004877
29.0326428566 0.3176933495 30.0689275499
26.7583037762 1.904349526 29.7767221927
26.6338010314 0.9309747716 33.4217745925
28.2405031481 7.0812481212 33.4737696135
34.1692011952 3.8247419531 30.5187370878
34.3187188812 1.4290584564 33.2193971628
27.9963907101 3.0434750439 36.7884051764
26.2595450053 5.2872649164 35.0130046972
27.557015096 5.9018417691 34.0254452834
33.0303629774 7.5188173902 33.1519908155
31.9121212411 1.8043975393 32.8952939479
26.663885327 5.7707193108 29.9002017348
28.195489104 0.1613597835 33.6389823183
27.6584003278 0.2017859095 35.2678768619
31.9855079095 1.6849004511 31.1779944899
26.6480225141 7.4294265467 34.3285290898
32.2720601469 0.001956259 33.2223462293
27.0504297461 7.2383044132 30.8035522683
26.6968113763 4.5304288028 33.3869538506
29.8138323791 3.7403350129 34.0899665574
29.7600015487 1.1867078918 33.1877050886
33.6226741969 2.2436186437 31.9412833175
33.0770638239 0.0015253769 36.132388385
28.0059249678 1.5364452614 32.5634905837
26.4851314158 1.2339409071 36.2431586944
33.868213468 5.5782487173 36.0077692927
33.6014046038 3.9069618587 32.2674088376
28.0320561405 1.334609774 36.5428304645
27.9131959055 2.8242658302 33.5579663497
27.8456116416 5.712062184 31.0674019786
30.6679439906 5.1847090226 32.312205782
28.8508959521 6.9120077312 31.7306343296
29.7013126667 7.4071604877 37.0803682029
30.7401456864 6.8999070395 30.5620077359
29.2704402462 5.4631192212 34.6297400035
33.1951482243 7.4570627237 36.5166373538
32.4502275542 5.1151748043 32.4065151807
30.7813639753 1.5937762811 36.7402486306
30.4861270629 2.6478195052 35.4696275529
28.7578264098 2.7405971864 35.1474229638
32.6671524218 2.5455337425 29.9766848348
32.1694419274 6.0738371819 35.7911535918
34.2359665398 1.9920662905 34.8231868518
31.3167407933 2.9592660122 33.8243212472
32.3668974814 6.6022290492 30.5803153157
33.9215220984 1.6259065095 36.4060197966
33.0833370222 2.7962167067 33.7323109635
30.4203258304 6.3224578748 35.3987491714
28.0719076423 1.6802755076 30.9052630212
29.4268154164 7.8684949905 33.1712733555
4.745397326 12.2581076557 33.587106062
3.9742942832 9.5736492193 33.7627675725
0.2074222213 15.5603994803 31.8337936414
3.4868666611 11.0775668629 33.1102733681
5.4515542272 11.8337806375 30.6129740131
4.4199634103 9.9650117188 36.9440337553
3.7281988409 8.6762106397 31.4777259813
1.7838808893 14.5232991126 35.6009575331
7.8217210754 12.8316542269 33.7051477575
5.2881625103 14.432010771 35.936387133
7.7830296852 9.3297268893 33.2378409872
2.8661589779 15.5575772965 34.7112385566
5.9463011241 13.3784721268 31.2075230128
6.6988635202 14.2526097615 29.874393821
5.5388404278 10.2330599625 31.1102791935
6.5316971528 15.7873881145 31.306995404
4.5331162193 13.6713645871 32.3068061103
0.3599447415 13.5072485995 36.4656168269
7.9262279759 15.3576359826 35.2694388207
8.1874417481 12.5537762081 35.6916154248
6.1507202464 13.2209451927 32.8325532631
2.7225784319 13.4814609747 31.5414011249
6.230588393 14.8776490615 34.824062589
8.075565283 11.4599734261 30.1476803622
1.1400861681 10.8615216032 31.3306016585
0.0655760658 8.6648780202 36.1549122978
4.6552507057 8.6356964187 30.1476301727
0.2267675855 12.3624564161 33.6779453662
7.9372892196 8.2457243586 30.4086114492
5.4730508907 15.0027691719 32.8409651346
4.3257645996 12.9182025028 35.1690812499
7.0311662943 13.9353734838 36.4414373537
1.1008289866 12.661988692 35.4307326547
1.9069815193 14.9644450916 31.2788114932
1.3568504388 9.4507614206 33.7064829987
3.7728086818 10.72775997 31.1839435882
1.8099718769 11.2684464968 32.8306527488
6.320200736 8.5234382626 30.8776621794
4.4247745058 13.3890744315 30.3272865614
0.7830593816 9.1261004051 32.0922055397
1.9425519979 11.7403621504 30.0563014611
7.3036458193 14.4699585615 32.3251700617
2.606291917 8.5787539475 34.1538628427
6.1552571599 9.3546381553 32.7572259491
0.9635031703 11.0184266593 34.5811504928
4.5349081692 11.7828821512 36.5135539416
5.7466262682 10.3267521874 35.8063373237
5.4133029033 10.6710028653 33.9421695858
3.5902227573 14.3787080405 35.6435498265
8.6760657474 9.2451828797 34.7952761405
15.1402598178 8.3386069129 32.0457919865
15.4606531642 11.955316661 36.9093085649
16.3302244801 9.0508964337 33.1135974757
11.3378156852 14.4036383162 34.2174230215
14.2729400524 9.9162425421 34.7927381077
9.0158569685 9.142666821 31.7346093478
14.7326428222 11.1273030726 31.8364551924
10.6676741832 11.2755610353 33.0463805304
11.7852973381 9.2684366834 34.6656110935
14.8476917769 15.2284513768 35.4635173284
16.596408263 14.720059592 36.330185513
14.2023239259 14.2523188611 33.8288983686
9.525812244 12.5029897105 32.4790167271
12.9508442212 8.120366309 33.9930003006
13.5182518039 11.2782105846 30.0344278175
11.0898136011 12.7238878708 36.5225918001
16.7663240054 12.8250346083 35.9928932091
13.7660585089 8.8519258831 36.3314366012
11.5800504536 9.9460583256 31.9136685816
10.0899859976 9.6325206782 35.4677904304
12.5605162427 13.8268541162 33.1877532397
12.814367686 14.1157723776 31.6462571087
11.5849600403 14.5369219402 30.3800439568
10.7065633891 12.8949188735 33.6685576045
12.7002506883 13.891487801 36.8254809665
10.5039710029 8.3050900072 36.2798440416
13.174415834 11.2307261549 35.2838980094
14.0489086723 12.7269904678 31.3521302012
15.6490234382 8.1092510406 30.4561540029
11.8727154948 10.7789804585 30.5257577811
8.9454876346 14.9891553297 36.5214113466
10.61823645 8.5253090263 31.9246614511
15.3153552594 9.1945878488 36.0399509301
14.9751807576 15.179230164 37.1774379873
15.4322903618 14.1661035628 32.5890959686
14.2042923434 15.0869590106 32.0695488779
8.6250293218 12.8490093098 31.1790057768
14.4585812349 9.3335130263 33.2121170059
12.5388084444 12.6687661966 30.3160958389
12.656421387 12.2106802936 36.3679455011
10.2155844378 13.0806410773 35.0931627677
21.8539975041 8.4950476124 30.0148146529
17.5976096889 12.7802419589 33.9932647765
24.7487988132 11.4176222117 34.8902107846
18.7165277895 10.652567822 32.2784670068
21.4017591992 10.6696957746 37.0121000198
22.1870012711 15.4236379484 33.1344570258
23.5989771057 8.8476309871 33.4382061165
23.4647226711 8.7781966354 30.852573157
18.1323227863 11.8635519118 35.6562195882
24.2493380542 13.5155714856 34.3027198665
23.2481434442 13.5930152284 35.5795651849
25.6897310221 15.6863890254 31.1334535976
21.4621156641 10.6070765972 31.4735857287
18.3211388558 10.1589686708 35.2149586625
17.7490525082 13.6400388725 30.6893259669
18.2740224568 8.4758338473 35.4208094491
20.0477245437 8.3236843373 33.1662392894
24.0606935686 13.0456783713 36.9667625343
21.3161313937 14.0429548331 33.5492606087
20.9656836081 9.6893035245 33.9253647594
20.4769617082 11.2037431819 33.0800894837
23.4150186421 15.2239452239 29.9202536516
22.3240422488 12.245919855 36.4737342509
18.6128233928 8.7556818426 31.4302075102
22.2649306554 12.7212443567 34.1825715697
23.5167005987 15.2587424648 32.1499975297
19.8932363877 14.9717663629 35.4686933656
17.2834610165 8.8223686344 36.740183737
25.5032322209 14.5227121164 36.6917834266
25.1793204695 12.8953409462 35.6943769996
18.5446302963 12.5344539906 32.4202524917
24.304355265 10.2573896356 33.6075858291
20.0531036856 9.6177943028 32.1054743722
25.4417294659 14.1788379654 32.7032907137
20.8982300687 13.7831897164 30.1777108778
25.8403149274 10.3902083833 32.369778176
21.333446027 11.9670809596 30.3726831828
20.0936319253 13.0851409903 32.949263889
18.8144087767 8.1922294942 37.1207363344
22.4494292066 9.034902103 34.4287993131
17.3134331936 15.632840869 33.1036741192
18.1537057398 15.3978063748 34.8272776469
23.1352781285 10.9785829017 37.0843947899
20.8116453338 12.7141645966 36.7729125737
19.887795542 8.7465170394 34.8757934056
17.2904816088 13.7940672804 32.631643466
23.3748105428 11.7770455071 33.3529786877
17.2910051363 11.0484238327 33.2942220947
22.5048164589 10.1798017632 30.2782685775
20.3305685414 13.4736202913 34.9585842498
21.2433390419 9.6575798213 35.6875962954
23.6330693898 13.6869445067 32.1713729294
26.1302867412 8.7587159205 31.3336944
33.4614514851 11.646641933 31.00888142
29.0194902718 10.7946542434 33.8290330283
30.00692267 9.8966383593 35.0813348558
33.1205981515 12.8252271554 33.5877809728
27.6402541476 14.2123254253 33.6415447813
33.3553994989 15.5151721842 32.5117619729
31.5817998541 14.7691897939 32.1954988327
34.4642194106 9.6405795361 34.5172361615
30.9897249722 11.2202324513 35.554148335
31.4854812714 13.2074512432 33.0183500159
25.862129723 10.373362202 34.2102246384
28.4644756888 12.5044993565 33.9414340994
29.7495971795 10.8759614327 36.8817445938
31.5194855183 12.8593988333 34.5930762209
29.8168472654 11.0795734799 30.0472798818
28.4627664284 15.4748470551 33.1506087199
33.7427501096 9.8453203812 30.9811554343
30.0759688864 12.2302807004 33.8462722174
32.7721454491 15.5106472965 35.3171651326
31.7227782144 8.751331101 33.7414105198
30.1306278997 15.7327544662 32.3453927396
30.549914828 8.8610642631 37.0208313489
26.0449461702 11.0258599269 30.9788901168
25.9144627628 9.8503800706 36.5194475996
26.8457591593 14.9276608508 30.2791772527
26.9006584098 8.5403003483 35.5029043862
28.3053714046 15.1976710701 34.8937272934
32.9420435812 11.8095777421 37.0437638524
28.8454517001 12.6174470874 30.1121286862
26.165206495 11.4773827817 35.8184005273
29.4050734321 9.6140228646 32.6909825567
33.4031035721 10.9222014277 34.2116479038
32.7607288057 9.008104098 36.3930782337
28.8764740049 8.9711621257 36.051592628
30.0915632008 8.244577014 30.3483681059
31.6066710123 9.5844808849 35.2374847625
27.9196036449 8.4906958077 31.3593420092
27.2865376243 11.2372517829 34.5911957248
29.33454257 9.7491114713 31.0642287024
33.2631562811 9.4941146729 32.6607570151
30.4761966519 15.2278788912 30.6345475445
32.6910324379 10.6246750782 35.7357264531
32.9388419383 12.9502783552 31.9845465937
30.052534731 13.0395854011 35.818461411
33.0651306512 14.3649478301 36.291562416
1.0784569829 16.5988893281 34.7872966323
2.7662510764 17.1866034924 33.9888273994
6.1337554097 21.7982318457 32.4890435467
3.5681539696 20.4751074911 30.606971119
2.1123258789 21.0858304833 31.2764556705
6.1403903259 20.0265856762 36.8215480611
5.6908198891 23.5895520321 31.7371650542
4.5771434994 17.6643574985 30.7455765489
3.7915331094 20.11293643 34.1037037282
1.2603779591 17.0943807186 29.8307585134
1.3974191069 16.5913581217 31.5354048146
0.7210226979 21.9256141031 30.8980787426
7.523151541 17.2049772512 31.7301355198
2.006743051 17.5391615508 37.1664038691
0.860600506 18.0517865567 35.9665798448
6.2453030193 17.7924277886 36.8435294023
6.8884638493 16.9560163318 35.0684802317
5.5544870057 20.2119275758 35.0817530317
5.295479752 17.7351212237 35.4444190048
6.0811308441 16.7704437152 32.5426712111
7.5981293958 22.3273780842 33.3527290201
4.9328999104 18.9715830438 36.2665366571
0.3871653405 17.336980132 33.1570239663
4.9107497977 19.4473898356 31.3380112253
4.52988718 22.532332333 36.2708622494
8.2678315972 20.9170349365 30.3856007858
2.994656141 17.2737876578 30.2020243833
1.878911912 21.2466459897 35.9236138093
1.0543794284 21.9378348704 34.2950424127
1.6780249358 23.1553106731 31.6543706171
3.3847845691 18.5357415631 36.8778255124
2.3438523116 20.7611407044 34.5259116187
4.1974681533 21.4785424184 34.8366014869
2.6041402672 19.3821449208 29.8647460855
2.5162694399 18.1440375838 35.4811657192
8.1138182098 22.7940877629 34.9410033337
6.6197793055 17.359333137 30.0275426432
5.5970501799 20.2869679297 32.6956938996
0.1786712498 19.0832077323 33.3962116438
2.8540341342 23.007283757 32.9995151094
2.535091891 19.0866783712 34.0394547762
1.6269921643 21.8664141349 32.7823077818
6.8190540194 20.936318675 33.6043139317
7.6417522155 22.5410946826 36.5584730191
6.0332129853 22.861717074 36.961500384
16.0609257682 17.8293618373 31.1456765828
13.4780784826 18.6918167199 29.9514401188
15.9299143269 18.6897805511 34.5869174423
17.1856746023 20.5090200926 34.036346036
12.9839257602 22.1233734435 31.9686765388
9.8201365215 23.5872997597 31.6063464423
16.2614502902 23.3846299428 33.7326088125
15.7998972683 17.9816543884 36.4884494024
10.2682795094 16.9683890915 32.0914316272
8.9574626338 22.0365887097 31.908164109
8.8829092086 22.9932632979 30.1080174039
11.1418691623 23.7599879599 36.6218896157
15.3448068836 16.5553638551 30.1943073893
14.3589136272 23.4825001796 32.327865806
9.7894184957 22.8449861878 35.6464136889
15.3879305925 20.0781427604 33.5049642192
12.4855921239 20.506364896 36.8272438615
10.5570040009 22.25658024 32.7137942146
9.5679648697 16.413342761 33.4193488539
13.2682404557 16.8350344967 32.5266458401
11.2194602143 17.0325188841 35.8846984715
14.3269822551 21.4274859374 31.3081643362
11.8225152313 16.9378030346 33.1381213521
14.8241090609 19.006092131 32.1463678744
13.3820150112 21.3717106317 34.016749739
10.9849177056 16.0807209221 30.4453099859
12.948232445 23.1738385132 33.1850400533
10.8103066413 19.9932550045 31.1497520111
14.2456623652 21.0401003316 32.8436545538
14.5188079766 16.7162482748 36.2533572229
12.8577322739 17.4338605483 36.274678979
13.2856033127 19.1097783326 36.4903685555
14.1283237798 17.9107430893 31.1687036176
16.5703708668 22.7215366207 30.7692656517
9.7353321904 17.1863510127 36.5662541939
9.1636491885 19.6185606557 30.3576328011
10.0787408622 21.0497943377 36.0183096045
8.7802577732 17.9014610304 32.6175398512
10.8050537782 16.0222713428 34.5154953373
15.9010600862 23.7751898737 35.3945715695
11.6665118703 23.5799925108 31.9227622182
13.0608097914 20.2848358305 35.1841221292
9.8983704997 19.0362613243 31.9604064563
9.9412678174 19.793383506 34.7640507034
8.6588184713 19.3312850363 33.8374105907
14.5072790402 19.5801802701 34.8507773544
16.9678758174 18.8810908002 36.7552083319
18.1012383623 22.0093147429 31.5289859299
24.2740684496 23.2973304309 31.5220756537
20.2712801536 16.5669141739 29.8084683889
25.2823686182 23.5493870907 32.7324674183
20.4727034369 17.6734661431 31.3377817047
20.0869972445 19.4304204252 36.8934549395
19.8688013573 23.0381483726 33.8374177217
18.3940829742 23.2854728181 30.6086709169
20.920134002 19.4479865625 31.0242808618
20.6951885888 16.1863996245 36.4433543173
20.9035700933 20.4395345484 33.7885131915
17.8895485194 20.5841018332 32.446008114
22.766407676 16.6829678327 32.4416694236
24.6340429567 16.1899462459 34.6263611834
19.0970690044 16.6263185907 35.8753374589
25.6072889806 16.1504252285 36.0594552679
25.7265986716 20.6716908704 33.1013912026
18.1499328746 17.5405432898 36.9908619288
19.3317632847 21.3485923077 33.1328269229
23.9116128838 19.160336625 31.1595309802
25.287818219 19.015290815 36.4177988388
25.7747687553 16.1356508501 32.9842150558
22.2015356362 16.5685319617 37.0053111039
20.0503608484 23.2550519055 36.3405396221
22.3781361884 20.9973783734 33.1113439392
22.2586947578 21.009990648 34.706554443
18.136420351 16.879331731 33.9621523641
25.582947396 18.1365673323 31.0351038799
24.1349870663 23.7138526411 35.0349045899
22.9367075614 18.677509863 36.3564422683
21.7233838033 22.3475071602 36.2114387111
18.8218133269 19.2965342458 32.407398267
21.5699757214 22.1232465518 31.1519756435
23.4321582821 17.5791522514 34.4570057745
21.6500499704 19.6820660944 36.110286555
19.1295094808 17.6215470381 32.7371734165
22.8046311331 23.2458566536 30.7531922108
22.5172089847 18.1867528092 30.8661706989
23.78581598 20.3784771603 32.6521297491
20.8270662356 21.1177234166 32.1721050975
18.7753766195 16.2813362848 30.7874201055
17.5619354868 20.1052224417 35.7165081664
23.5515096222 21.9567146638 35.9303446521
24.4268602679 22.5668967802 30.0144820099
17.8192330614 16.772438289 32.1012769062
27.4621848117 17.5669047044 31.3733453873
32.4208824712 16.0259267289 36.8585114689
33.5979357428 16.2612879816 34.0277784754
26.5723285253 21.6592277551 31.9061649916
27.4017874172 17.1176022789 33.1468876918
28.8969986287 18.1717405712 31.1014289737
31.726252281 19.5313738717 29.7639675742
29.9271889405 18.1439326795 36.5091787412
32.1198633984 23.1805851329 31.4459873461
32.8749078474 19.1972242744 30.8098743582
30.3762156447 16.8257410167 30.8596421259
31.1796584365 18.3120365188 35.4584653439
32.0087870968 21.1284016962 35.1337039558
30.7347879248 22.7702605076 32.4342133677
31.4981858751 22.5700730759 30.0100089826
29.5019726432 18.0323423023 34.8209904693
34.0828781016 20.0709967029 31.9122573376
30.3414347782 21.3374858905 35.0008717767
32.055135643 16.8891037915 35.0248532104
31.1674054759 19.1829404212 36.8070231339
27.3896804821 22.5409915392 35.9615288109
33.431952521 20.4172465577 33.5004073638
27.232482149 16.5780279123 35.8947980905
31.3809750139 20.1264959759 33.5482743968
28.8049088939 21.0902723202 35.6991181304
26.6374362534 19.7654543091 34.0421081842
28.0757212616 22.0180975027 33.4513929775
33.6232067891 23.0054568098 30.4984096531
27.2455914598 21.1386718849 34.7929026284
31.6863521002 15.9672316793 33.4350701337
28.2996568382 17.0381936063 34.3942296733
28.8342798526 16.0159085179 36.3104613551
32.5999452313 19.8955449448 36.0748276743
32.5590375994 20.2574998927 32.1631884657
29.166580505 20.0480561296 30.8215910482
27.9044191606 20.8305017759 31.6721778271
33.6473944448 21.5950010285 34.578222518
31.0572715831 22.803978348 35.4593761432
30.7354143351 17.4473073216 32.4604980353
29.7096659243 22.2039986154 33.7365184622
30.9679026612 18.5925674457 33.7715175357
26.1734881679 22.8045065346 30.7504976132
27.2210479317 15.9895436687 31.8052693088
30.1609186852 23.3008369867 30.9552386868
32.4937517568 16.6050820436 29.9379367647
27.3816789525 23.7346782695 29.9639450399
31.0181210756 23.7065076466 34.0061730936
29.5981346229 20.0971468263 36.8983146091
32.6916789926 23.0158643292 34.6554858707
28.6763047179 23.2958178513 36.7678601921
34.203111124 19.4967212848 36.8941081182
30.4014765419 23.3058911299 36.9358425207
31.7968358847 17.7050652142 31.0207274296
34.3656092455 17.2420486006 36.9697928136
3.8523829576 7.8921587717 37.4038348909
5.3707558019 6.9448706202 42.689368949
1.913323815 0.4421390862 40.8128832767
2.0089526066 6.4565380521 37.2405730469
0.138808366 0.0013524033 43.6043850143
6.6243539283 6.5584723079 37.9688060315
3.985205737 4.3591632951 38.3753708692
5.0310645755 0.3551270684 40.0952412621
0.4942142042 6.2194052002 38.4096799262
6.3699135911 3.7722353406 40.7736035767
6.5847469038 7.0847315219 39.5257570734
7.9027639414 1.5560038859 38.6539653057
6.3356181657 7.0730159019 44.16438717
1.1568445867 4.5412393526 39.190657751
8.0058487855 7.7340690416 38.3371720744
2.7722169826 4.3954636785 39.7676123029
1.043981309 5.5315335279 41.9429992371
6.2198387933 5.5991702797 43.2007144803
3.483201622 7.1174478257 43.6504091401
3.4330170883 1.1582421431 40.3544393962
2.3284243227 0.7166018403 39.1284081162
3.9011508526 5.9718399951 39.6535909604
1.3128657708 4.8324490474 43.2654675687
7.3719595111 4.9796298283 41.9283026258
7.2741601645 2.9177859075 39.7003202163
7.249849909 1.9046064526 42.7643439767
4.3478684576 5.2503802568 42.690647228
2.9677187461 1.6669681057 41.7682842725
0.47331344 0.0651516168 41.7433877898
2.8426770225 5.6457979783 43.4537933297
3.6943976759 0.7838701224 43.2700015279
2.5235625743 2.1791565919 43.4079154776
4.7546558483 3.9239226497 41.7067289389
7.9180411943 6.5973631121 41.0952491135
3.2699897718 3.3311977865 40.9965922272
0.2641254269 6.412774454 43.3144787785
0.8328971713 2.9397818935 43.7664327352
5.1879325276 4.0470509583 43.3379531382
2.227069831 5.7135181049 40.667323241
6.3722193264 2.942457912 43.9008881639
6.0128211639 2.9198819001 42.2518463779
0.9868831688 2.1421187011 37.4764220883
4.9250945577 3.2635446456 37.6407179858
7.6315524607 3.1361045088 37.9237693288
6.5655669413 1.1672386965 39.558776374
2.4588286704 1.2535984155 37.4990342046
3.8375669059 6.093200193 37.7775269418
0.3502382059 0.1478416993 40.1508908629
1.9006337511 6.5993238861 44.3259626493
2.3364125027 0.6978732108 44.4652513845
8.9454761803 1.0546416099 42.6638476396
10.4630344299 2.2679655086 40.8756129588
14.1798694029 2.6965079832 40.3243713654
14.7637802033 5.3445597118 37.7311335301
13.4859230014 2.162301475 38.7623927343
12.7167023806 3.031712605 41.3856831766
14.5098688876 0.892551121 39.9552796726
15.4375962321 4.0313066284 43.8651376777
8.952347402 2.5639524298 39.5897552719
15.6838130087 3.5708631832 40.1232236047
9.2437411693 6.9964449615 37.4712119428
17.0089341212 5.9852510346 39.6329021835
16.7142595916 6.0208042605 43.6903122975
10.4661862606 5.5137214137 42.001680493
14.0469993589 5.50462759 41.778977376
11.3765363301 5.6064993171 40.0973996142
11.8832747977 7.1955483448 40.3326439379
9.3602532467 7.8362929846 43.2091687439
15.87485663 1.8143386497 40.5678698045
16.8719295034 0.2459302464 37.6795790693
15.8207460902 4.6714183249 42.1794488384
15.7792187986 3.652647451 37.2939750725
10.8152829131 0.4934681263 38.1945997399
9.1624641312 6.4720708254 42.1312741642
16.8390309559 4.7288956552 40.6783630496
13.9787588728 2.021798385 37.3286333371
14.5659859684 1.9769354734 43.5722183869
15.7966218339 0.9541791965 41.9164895423
10.2339516523 0.590514467 43.7420402912
13.4215115685 1.6699615641 42.3456673599
11.7544961816 3.9960524198 40.5993908703
14.2826027967 4.0490714678 42.7120318229
9.3631713681 0.6593968483 38.8720295101
10.1880751423 5.663440233 38.0110634727
11.6812227592 4.5548616634 38.8487302151
15.2495816036 7.2182260553 43.6386704687
16.0439964109 7.5892202414 39.6180131923
9.2020951012 4.3107260341 38.6774069947
13.6487847651 6.7701465504 40.987067605
14.5995520786 3.7969236396 38.4049298695
10.2297991493 3.7554822549 41.8079674796
11.6929620415 2.6470270485 39.5335073192
11.2222535265 7.5089316475 37.5681617507
9.1122054 4.7010345002 42.7679625925
16.3340174339 6.1862964956 38.15427455
15.8135941407 1.1222039965 43.9232474121
14.0152229278 0.5806358097 38.1922692682
12.7065292417 0.1912314592 42.0396897203
12.0737967718 2.9979971309 44.4172855004
16.881376174 7.8885655366 43.2242753322
21.0855413492 1.9377048163 38.0564118805
22.054713525 7.5219974137 37.3785886757
25.0948273251 6.6119675844 37.4043762707
21.2283512305 1.0122432587 42.5461057717
18.316254263 0.5186499418 37.6860498626
20.3174214416 0.3651618487 37.7889974888
18.4983769598 3.0497211424 38.8295128881
23.8728731764 4.9701682082 37.5360456882
25.2814556556 6.5806174546 40.1423179444
21.338041039 4.1771687166 39.8789398273
21.9147803308 2.4387685041 40.1081682828
20.3938842359 1.7222310171 41.2420414671
23.9859771009 0.0465599513 39.4187620845
20.4045970165 7.2869653531 39.8531701301
18.6967343468 6.1470299725 40.2933287863
23.6825012243 0.1950746889 40.9472233698
18.8303389107 2.5831984862 40.6685763173
24.6507010683 2.5499810561 38.7476919309
24.1353758045 2.6128381453 43.950406216
23.8485254239 4.2014934421 41.2365331591
17.2666488318 2.7389963722 39.9188264485
19.8878242359 3.4549474828 41.9167782187
21.9785592231 5.6490455653 42.6742716374
24.2083856849 7.2832104794 42.1316811424
25.5739382985 0.2315762128 40.5476213176
19.1350082143 3.4539103914 43.3069831003
22.3950118159 5.0192079716 41.1599200783
25.0020685957 3.6201304478 37.5587518877
17.7320662256 7.5895975562 40.1923933092
23.559450275 5.9118793701 40.4706994446
20.4074286921 6.6487626808 42.9557701866
19.6646406175 4.2066266253 39.8912114284
25.0808351912 3.2921620931 40.4241188141
20.8553202883 0.9808839581 39.733004436
23.3443874995 1.9350224015 41.0460437571
23.644240705 1.2875928853 38.2254973539
24.0866452859 6.0541524566 38.9298607649
25.4269366523 2.0652194247 42.9126540116
24.9425661304 1.5690905302 41.3661749143
23.9688305159 4.4220894575 42.9705492181
19.3179630482 5.0371386846 44.2482511826
21.8776818584 6.307028389 44.3394938081
18.5691303503 1.8592921355 43.7527383102
23.869442927 7.4571735253 43.7482048948
26.7497538104 5.8529638322 38.0014071286
26.1436160995 7.5491312611 41.5297024208
30.2706384347 6.0716739404 43.3385287436
31.0013959007 3.0000448645 44.4105489211
31.361655401 0.3174375068 42.6749177951
31.3335628589 1.2936960662 44.0201492185
27.9297756112 4.5953053331 37.7369696799
27.4807386032 1.2135231837 44.0623907846
27.7255513785 4.1966521299 39.2815047658
31.0634790906 6.9182681615 42.1885822257
32.7807404754 1.5351641736 37.4781324007
31.0413663144 2.5803790786 39.4245392908
30.9378463187 5.551939176 39.3282484543
30.8863140303 4.0161148456 38.6061041729
26.7311883252 0.1524591231 39.2523425073
28.0342258773 0.3645104226 38.3562758485
29.2936404577 2.070993625 40.3552197292
26.7938220499 5.4886916896 39.8442463844
33.4830597323 5.3545046596 44.1918089204
33.5814779692 5.1296491098 42.5401507907
26.7395691348 3.9549956264 40.824028076
31.709675467 6.5424567023 37.7501062966
29.1542487946 5.7002344828 44.3860443861
33.8166999336 5.3276502303 40.868453177
27.2660234831 2.9765299182 43.8010943979
28.5378854383 6.0600387214 37.6724152362
26.180988823 3.8878602663 43.2255451463
34.0449232521 2.515839169 42.0035384782
27.5839331842 7.3619888659 44.243747554
34.0183327243 6.7547686294 41.6402098797
27.7045349233 2.5020954239 40.3898457524
33.6418201908 7.1179254095 38.1384851069
28.0435430309 6.4532619523 39.4334595547
33.6516148888 1.3442953272 38.7018897324
27.9026037238 0.3916599659 42.3781270427
32.1652229304 5.0198301953 38.2366982095
29.2447143186 4.3700771243 43.1045434025
32.074050185 1.619026967 40.1530805647
33.5406778688 5.309673847 37.6515573388
30.6952823786 2.2268976521 41.1795054781
33.4972015407 1.4374724199 40.7001539305
31.6683169917 6.6159568199 40.6491824665
27.6424763155 4.1672354686 42.2956547704
34.0770461806 4.1367520824 39.7724015342
34.4189142094 3.1307761639 38.372916908
29.1861574523 4.912727431 38.8622286983
31.893218547 4.5805854246 43.9715745825
26.3224874261 1.7089957334 40.2454537108
30.7230116383 3.4922451581 42.5734000061
31.445249716 0.5047562413 41.1078053738
25.8753230766 2.0092629342 44.6217562831
5.7710029186 14.1698029369 37.7395683455
7.8956793717 14.662068745 37.9240015352
1.944741032 12.1324412618 38.9330399657
6.4806577916 15.7407871401 40.9656227883
2.0169078208 13.9503129044 43.0705577524
1.0166743535 15.3432667189 43.8115294658
7.356415069 14.247663253 43.5719224101
7.0109925403 14.4758492754 39.5080308429
4.4443921867 11.9421922324 41.3115210319
2.7009221259 9.2203961162 41.6479648927
1.6174677456 14.6610098675 37.5133717628
0.8386616544 15.289576693 41.8342103723
2.1633910467 12.5817699189 40.4296022438
0.6846360614 13.4890444659 38.5641080248
1.4231161551 15.2526354903 38.8977885557
3.8670797436 9.3138459099 40.3617115782
3.461561015 12.8130444982 39.3983728371
4.4757022985 9.6217640262 43.866576819
5.8372788936 8.7285506071 43.1536820375
4.8429706665 13.4532297179 42.0827380889
4.8934322767 12.8378906888 38.2948215944
2.8010200545 8.5121782406 43.2934878896
7.5274472995 8.6136605772 40.1806094861
8.2183221601 11.5305625925 40.9533460732
4.80785229 15.4747277654 43.5052626929
1.6074543509 10.5782194955 41.8518022404
0.6355841524 9.8753066851 37.8204584972
0.6087390343 8.0898509153 37.6485724338
5.7083563807 10.3833636677 42.3045222683
0.9973412515 13.2697148579 41.879524626
3.5379670405 15.5428851809 39.3407443617
8.2183903644 12.826613727 44.0859784961
5.3683161144 10.5894270984 40.3746967876
6.8700062891 10.5522189247 38.4248308598
3.2374080052 10.9065133312 41.6260919294
1.5621132082 12.3175154949 43.3643870856
8.2591671797 9.4895643806 38.3738798736
0.8235812909 10.6188041548 44.2968802033
3.2332704704 9.486752788 38.6082522826
2.1306152876 10.6362562117 38.1102040324
7.4259433145 10.4833609212 40.1322372058
6.4752488656 14.17268588 41.7967888927
5.5820166721 14.0647028518 43.8055343849
7.8306710039 8.260355908 44.2633479546
4.4467599932 11.3369011621 43.0896706969
1.5573458074 9.2315130544 39.2669057007
1.9147110703 9.1575561413 44.5949308073
5.5929717754 11.1122355363 37.6648289572
3.6135630688 14.6867716964 42.4976746095
1.0759770607 9.3091152418 40.7928545394
13.2951609089 8.9331095108 38.1157527132
13.997355389 10.1017643097 39.2960076911
16.9870758069 13.7018395148 39.2662177292
16.6775511388 10.1341937972 41.2061446308
16.8884240996 8.3436825718 41.4284807192
15.3349440982 11.2076562237 38.3208770009
17.0971118942 15.1836160486 37.9935363239
9.8632593187 12.3303470059 41.2470356617
15.6920001051 10.4587615112 44.6240172254
16.9332824965 11.950499354 38.7843066247
16.2440173705 12.6601180482 42.5335872701
11.8985199835 8.0218259809 41.8389354882
16.6138146097 15.4630802309 43.9891037892
14.1133276347 13.9552932516 38.1589309416
9.9635267173 11.6256283782 44.0092001141
14.7901651967 8.2566066179 40.3869208258
11.4294775955 8.7037069666 40.2131109404
16.5380985211 9.0518522448 44.2323631114
8.6217857755 7.984797845 41.7233545342
12.0135736275 7.9505428663 38.8275169982
11.2789990557 14.7026533269 39.1482376226
9.7130278865 10.1928672869 37.368323325
11.5184615237 10.3110083916 39.9979216336
15.4478305953 11.2372358866 42.2097887443
11.0361017455 8.0098128369 43.6935289759
13.1374000225 13.5303328066 41.3183124604
15.3717991938 14.7903976291 38.8397256978
8.7971290224 15.0195992464 43.5814023134
8.7228286795 13.7031313477 38.9854686335
10.1152788135 15.0327588185 42.0738875812
14.7917089799 9.916983397 40.6782675533
12.069234695 9.1378711547 43.0081498798
12.620589614 14.9149094641 38.1938431716
13.8555705051 11.4954572025 42.4543377437
12.3251302773 9.6735573014 41.3162147062
14.5503285613 15.2243444144 43.619433515
10.7531094454 11.1058745348 38.497498917
16.2753445439 14.0201036194 41.1338687418
16.540985183 10.4731530313 39.4713009419
11.7707939321 14.3510796687 42.0336554786
16.6412953277 13.5186964546 44.0125437647
10.2040207721 13.5179187986 39.5936645327
8.7631232166 11.4014243653 42.4988701067
14.8073581312 14.66749491 40.5831901075
14.2032343367 12.4439346756 38.7851360258
15.3992682423 13.9955746763 43.3671450791
11.5983450707 12.537898366 40.7391532818
23.930784384 12.1487550327 38.323266976
25.364533824 8.3535282462 40.3701498191
21.0513098851 10.7579382383 43.2007472728
18.0564927286 9.5315377117 40.8045370537
17.2457563942 8.7079659994 38.4838373033
20.0705626514 13.6667943023 38.6513129469
19.375531827 13.2157949601 42.5241348459
25.0143317149 13.3587836196 42.2857619349
25.0923804152 8.6163167981 44.1472157419
19.8175985905 9.498029632 42.6697908554
23.2823716537 15.4805172468 37.5236090489
18.0111587776 12.2387323437 42.9677076531
20.7910353197 13.3922787574 43.9021997202
24.4239957468 10.1860848562 37.893733026
22.3507454857 10.0478574583 44.3726930688
21.3553467766 9.4097743725 41.9099198735
20.9704769249 8.0671876829 38.4132310175
24.884794798 15.1080908405 37.9874419098
22.1335468518 15.6103857412 42.4272767376
18.2643417346 13.0831939171 38.4468679471
23.9394252935 9.0511470266 41.4270353223
23.2609145445 11.7994623934 41.105374233
25.5586647612 11.9743382279 39.0675749146
19.3152252432 8.1109004826 43.4540172188
24.1465979686 13.6325492897 43.7408821986
19.3636034446 15.7358322232 40.6288044522
22.9192320744 13.0178742867 39.889161385
22.8005498036 10.1392621354 40.8376783834
19.3123913499 14.708827679 41.9845324225
24.3030220655 12.426390073 39.866339043
19.8403220951 12.2329182012 39.7578131572
17.6587946821 15.1563563192 41.0225944324
21.3550402682 9.3937047575 39.8124761689
21.3124724225 13.3121224915 39.4994225845
24.3144535922 10.9122979044 43.9544216819
20.8807185033 12.3284897612 42.606679441
19.7828626067 9.4557826625 41.0154736877
22.1875777686 12.980889984 41.8901486409
20.8589516644 10.662577069 38.6530327605
25.1476105983 9.9281178144 42.889090787
24.4358907489 11.946461319 42.5703171062
19.1782402663 15.7828537511 43.7150327738
22.1701793441 14.2242024752 43.4070970943
20.4746394245 15.3274911165 39.4110660563
25.2864203275 8.4141101899 37.2307723735
25.6377572881 14.9304997052 43.1245840632
18.664709828 10.7150018112 43.6448291998
33.3014075266 13.3613813093 37.5325201143
32.8555766394 7.9922050848 39.8205349902
29.7685287071 15.6025387951 37.6810052609
29.9232257875 9.7664814143 39.9109002574
27.2126383471 11.1598471621 37.2962980979
26.6863369154 11.5571924438 40.0231609637
30.818453143 10.333096294 41.3923670445
32.0959811014 11.096914659 38.3752252176
29.4290174237 14.4980903754 38.8902204296
32.4450406121 14.1070040215 44.0176329598
30.6955869919 10.1091062237 38.4484243583
32.1448891424 12.9586818301 42.7657253958
31.9736666468 12.7211809665 38.2644763419
32.2135317571 9.2077551259 38.1655083687
26.6545957386 14.5928237963 38.1289798431
33.7925889999 10.0664334671 43.6726475372
30.9496281252 9.0261792683 42.6344415088
26.6870460742 9.755266087 42.6072315339
33.4436159238 12.9594887264 41.2705130689
31.7319657987 8.3438455141 41.0897675153
27.100667109 14.4197990126 39.8386276301
32.6982847712 12.0200565077 40.0705791184
31.7604225546 12.0411071177 41.419355667
27.5680593834 8.0525676204 42.7457258549
29.8348673887 10.1403689891 42.8184304372
28.0152454466 9.6662964127 40.3146272843
29.153202069 13.9364159103 40.918392758
29.3248222497 12.714866751 37.2502050379
26.9778616842 9.0117373137 41.2885317526
33.6195936333 10.3504602792 37.4738679208
28.5995247757 8.3603556758 39.2281806504
30.4044828648 11.1931809914 44.5870296396
30.8527361141 9.5473561646 44.3307694005
34.0073087715 8.5692125508 41.0375161171
30.6733700984 13.6575158153 37.5739919539
27.9359492081 11.3771561875 44.5001386736
32.5012565126 9.6124399583 44.4005141259
27.5492363884 12.9564622442 40.780934896
32.0531219828 11.9800123892 44.3712783296
27.1936680902 15.4232240972 43.1172668078
34.425572494 10.0413395194 41.93614424
30.3946650885 12.9638726202 41.7039310673
28.860276527 15.4691631056 40.3385486434
28.1514162809 10.4563817213 43.0746846151
26.3498971546 14.0906879684 41.5819157178
28.9703710802 15.554985487 42.4903226896
33.8069944341 13.3591733356 39.4192638472
33.2345617283 14.52459528 40.4656794707
26.0132224543 15.840817002 39.1583553455
3.4714440889 16.030655633 41.0253659473
5.8676092149 21.3999202603 41.3078089517
4.7232778479 22.5006056375 40.8551816689
5.239699875 18.4159103603 42.3199991402
7.1995154872 17.9942596926 39.6317056069
3.5635886355 21.8850812038 39.5803044999
5.1620967551 20.3955707291 39.9857314027
2.5295686532 20.3347663276 37.4378091462
4.8792500444 21.3254120071 42.7276064726
6.8830240349 17.1936252238 38.3579425117
6.0165700162 20.9454368664 38.4681602106
1.505153933 22.0289246631 37.4836845351
6.9371001887 16.4998872 42.5604968688
1.0051472092 19.9475378613 37.9112777497
7.6192955773 23.7224807304 39.1841185219
5.803783595 22.6494525044 42.2283278375
1.4927611951 23.092697627 44.4430276976
2.3365975822 22.9287650693 38.5948062936
7.4097319787 20.7272196784 37.5483439861
2.1468486714 21.7764032967 40.0464996423
3.499135204 18.7996483164 42.0382714161
5.431827741 17.8092011156 39.31448026
2.731249304 16.0409550052 37.7868301012
3.9699984811 20.0662920881 43.2823765178
1.1820439774 16.9169251627 43.0020528034
8.4645574811 17.8568606873 37.9758934963
2.9317181275 22.5987606008 41.2406583174
7.2970841076 22.3845388239 41.744635482
0.5854108011 21.6209233208 39.0505570194
3.16500858 22.8284312465 44.2705178717
0.9768663528 19.7118403008 41.0733064628
0.3603208334 20.7649359211 42.3993331014
0.8639434737 17.5497512099 44.4385815661
7.1827574471 22.4265945755 38.1465164598
0.7105074028 15.9106066258 40.3842338928
7.9723053795 19.7640474235 42.7125698495
7.2520260064 20.3328385219 44.2700921508
7.2765718572 18.6245840672 41.8679569264
7.8375590183 17.0360688137 41.0996093489
7.5737490329 23.7760198563 42.780529665
4.1260200279 23.0788247882 42.5806035062
4.1876303826 16.9257340502 42.047235885
7.9302689743 19.4552218371 38.7296790071
3.1412062374 21.8282737135 42.8680685111
1.5641805878 21.6438383763 43.4944155315
2.3471455603 18.8635854771 38.1547480915
8.607614116 23.0118774237 44.5068009489
4.7619619772 16.6719385347 40.2558573291
0.8786910475 21.7212733664 41.2332660446
5.5768303434 16.9907359948 43.3384173011
0.9431702831 17.8628703887 41.0435809717
2.414848548 17.6403526961 41.9346380425
3.4927802958 21.8785573607 37.5235803544
4.6707854199 18.6551637624 40.651353854
4.9393803494 20.3032842475 44.5115348286
8.1180281843 21.6907278275 43.1817289477
16.8840151419 21.9769181219 38.9170248804
15.2965533706 21.7734823181 42.4814292031
10.0260167765 16.4570919889 40.9605702402
14.8606138706 20.0046588277 38.9373665146
12.3865330269 17.3434524338 42.4602958161
15.9268883639 23.5132996 42.7194898273
10.263353217 15.9044125424 39.3436765402
9.1694951037 16.1284213114 37.8425976334
15.2194811716 21.5659259402 39.1462658148
13.7288192878 16.6798186077 43.3968046275
11.9791755402 22.0272180253 42.2375450421
17.08629276 21.0389250761 43.3840229404
11.1201979976 23.4995065693 42.4765372498
9.6357493845 19.0183931117 38.1489601929
16.3661161148 20.249752864 39.6325148978
9.647585068 18.2145676788 43.3233155059
10.5675247584 21.9900667239 37.2749977375
8.9990718502 16.8876546818 42.3986162063
9.248779838 20.6384963118 42.0219057191
15.1007133673 18.5514653107 43.8914294753
16.601391108 18.5424735956 43.0256196029
15.4692902963 20.4081954387 43.9745400469
15.6313197403 23.2412862893 38.7453297568
15.515180276 16.5870792128 38.5049884361
13.4742913415 18.9985887467 41.2086039383
13.9592517364 18.010926019 37.2777377557
14.8198656976 18.8225910782 40.3951087366
13.2797457743 23.2255869703 40.7380515773
14.097249874 22.8266357344 42.4817569158
12.8319973622 16.1168239879 39.4646333845
11.3600724208 16.0825330889 41.8781115702
15.6300439677 17.3045221181 40.2078299394
12.9678484138 19.1228349358 39.5440921902
11.300167181 20.10853609 44.2667855186
14.9996898222 18.1094457749 41.9414482485
12.4538280018 21.5657860907 43.8576197272
11.1737803438 18.3565464687 43.3724141729
14.6980776894 22.1720889359 40.6110527928
13.4551126931 19.9578844724 38.071696002
10.5187469689 22.3788076347 41.0588984311
9.3961326575 20.0422970191 39.3188808773
10.3620764236 19.7488009494 42.9871804869
12.4151790608 23.41486043 37.7139897167
9.7659721048 21.1082004324 40.4168764893
14.4544137452 16.2716896175 39.9385497724
9.0776690421 16.8359117139 44.0246450425
20.6639465326 16.2007494734 41.9899740376
19.2991485274 23.0195994926 38.6030985226
23.2711787664 16.9845776369 39.5323978876
23.1185442966 22.7432608408 42.2636529596
17.3820766616 22.4614759259 42.724269661
17.9761611273 19.7523449126 42.4329486686
24.8505254294 21.0247358769 42.1528256333
19.1782723187 17.4258072531 41.0983833947
24.6001067119 16.7150111769 38.610943524
21.3073335277 19.2440082764 42.7658499016
25.7907031993 21.0968157031 40.9054633774
23.5652857475 18.9707257286 40.0456541253
18.2384402965 17.8946506068 42.4690604206
23.5293654386 16.686627535 43.0465112094
23.7445164252 22.223277513 38.9354177596
17.6376564739 16.3518778197 43.1194991159
23.9260003228 19.5906849411 41.8381587755
20.3506149074 18.0091287446 42.0146058037
18.6485500051 22.7009891282 41.4883960222
17.7209559129 16.812426425 40.4938360849
18.4071071346 21.2301238657 38.5465051627
25.2829504555 18.326660871 38.0590368135
22.2600312256 16.0237931158 38.6829420582
20.6713328042 18.6826961657 38.5484501685
17.673036281 16.7818826519 38.5899675074
19.4252194787 21.7260468104 39.7238388029
20.8645608016 16.7837011307 38.0904971011
25.6569890228 21.2519397823 39.3401850655
22.8817982471 18.5947132387 43.1619340383
19.5513537431 19.6387806807 42.3607936939
22.9743843844 22.3679976692 37.3222538591
22.4591147115 18.5152828129 39.2789445503
18.2908162551 17.7375025439 44.1145271461
21.7704837585 19.032640605 37.5480421614
20.9184763834 22.7800397183 39.738919976
22.5586697046 22.6470570004 40.2544859992
19.2700911468 19.8702164506 38.8533030726
19.9114574046 23.7159164591 42.1775248434
24.0006275043 17.6967847389 41.9384367175
18.676154986 20.1941783233 37.1967294602
25.7915102454 18.8353024554 43.869634688
23.2678285705 16.297079264 41.3541844542
20.5015524816 20.5009679197 43.4276446862
20.3560339437 22.1351286194 43.8625312372
18.2123510062 22.3687292852 44.3464519119
25.7513737734 17.9981863467 42.4236711761
25.499441644 22.862986307 39.1639950634
23.6591169868 19.5245501432 44.2837723221
26.0496546681 17.4428788192 39.4423690339
33.8145492997 22.8848562586 39.3245652382
26.9875959652 18.8693110673 37.8593757971
32.5117050644 16.1087624854 41.3197673199
32.0145711726 23.2311143466 37.2775450978
28.1732243531 22.4978307341 39.8995988894
33.3070744363 19.3679821445 44.5600485067
30.0205367254 17.3857381421 39.3257265718
25.9916798459 20.3260341591 37.8279568622
26.1439091276 19.739055836 42.0379911162
31.2236095928 20.3555368456 40.6127706016
32.533482524 22.2643089578 38.4902951351
29.4903912573 17.9070454511 44.3589525278
26.437567091 18.4393334987 41.0166305097
32.0578491404 15.953063444 44.4517134435
30.6751119745 22.5304086747 43.4842572618
29.6342631788 22.5008915336 38.1523530245
28.1704542169 20.08136113 37.787793022
30.0380855011 17.2466889282 37.7391022855
34.3991344316 18.7279156295 40.1776016096
29.4130416989 20.7861230691 38.7839686514
33.5500771041 19.7800136948 39.0047335432
32.9794335118 17.2640394895 38.0647633842
29.4091452576 20.1365182492 44.5640529772
32.6400620205 22.1923207036 43.5912557872
29.1885919618 21.7564356371 44.0110140295
32.577732655 17.9350067528 42.2429446209
27.9559136055 22.4646685078 42.937529151
28.2757406502 23.2588420301 41.2268329103
31.7367409307 22.6101361679 41.9890916279
29.5465792029 19.9577299023 40.304066328
28.8849023417 19.1715038377 41.902839836
33.1793199757 20.6782555047 43.0978593852
30.6463377235 18.5374645435 40.3059563375
32.2104597431 19.5265336542 42.0220011337
31.7100550484 16.5276128016 42.7130083917
31.9865797949 20.7595523466 39.390313332
30.7473303058 18.3913867044 42.376469903
31.4238484176 16.3555821396 38.1922383367
32.6168509902 19.2827375092 37.8010303668
29.9941039325 17.0633861028 43.0983134738
32.3141047395 16.1567470633 39.5636597786
33.4737348017 16.5020196049 43.283079673
Cartesian
-5.2127763939 9.8317443154 -0.2144738844
-2.4794133781 0.5629581078 9.5612489414
-0.6288151497 7.3350198516 -2.0693719199
-0.0794966369 -5.9395697547 8.4773894478
-2.1895343756 -2.183638203 2.7950182073
6.0185235377 0.0915635624 1.3787915464
3.5151649514 -0.998321346 3.9777313771
-5.2888327714 4.9069004534 -1.5087037515
-0.9294168256 4.7078922761 -4.3734905977
2.2627316263 -0.5504675747 -4.1382170751
9.8917443896 -8.9952712339 2.2030374631
0.3721939571 -0.063405833 -5.2043014533
1.4799096588 5.9241707249 -5.1079713822
-9.0304442175 -9.1380632077 -5.2565214577
-0.25991835 0.4437566841 0.495399864
-3.8472769013 4.6132716032 2.6035334217
-3.7243397066 3.1615985986 2.1337208079
1.1515730601 6.0152201565 7.9336646821
4.0447128421 7.260681351 11.0068967594
2.3220939862 -6.0395666962 7.7361406969
-5.5390887223 7.1166282494 -5.2996882159
1.7808012588 -2.0320683574 -7.7875252014
5.2571377307 0.7845178407 0.042715547
-7.7961918774 0.2612138713 -4.1022660091
-10.425455058 -3.3466943447 6.9138818944
-6.2075982673 1.448760508 0.1913375823
1.0368457457 -5.6690518654 -7.4450582745
2.0537507135 -3.0711616613 -1.9479997349
-3.4617940389 -3.6310406523 5.608483185
4.6041144893 6.5813157068 -4.2237529232
-0.8018333653 -5.5961861199 -0.3855772115
3.0259497964 2.4450568438 -0.2594565448
-8.1737958296 -5.9671860864 5.4779219989
2.930285411 -1.1716387693 4.4541537079
1.0874347663 4.1481052907 -7.0559191215
-4.1528534005 -0.3451955396 -4.023315093
0.6031776151 -2.6721816027 -1.1868698151
0.7176207081 -5.4435603829 -3.3457753446
5.9029745624 -2.3509527634 2.1960638205
12.5785308742 -1.9239233171 -1.4927775877
5.6841574276 2.0661391931 -8.145759723
0.0882955902 6.1710308741 -3.145173103
0.6479954645 -3.1586208941 5.7360940856
-1.1069190504 -4.1219148264 -4.6342692085
6.7772278539 6.4642853033 5.1430400794
-6.1244594257 1.7888518731 -10.7736053897
-3.7915183475 5.5150956779 2.4345837773
-3.1624167603 -14.5536790716 -1.5570261875
-2.6857196656 7.7908915936 1.9175451369
-0.672301708 10.8471201575 -9.4718787246
-1.8012440645 -2.7443308568 8.0029994579
-3.549294601 4.6593386203 -3.6936277656
0.9646788494 -6.4795929004 -1.8200197521
-1.0974039144 -3.7061342124 4.769569789
-2.7737750538 2.467195337 -6.2354263331
4.2389837536 13.0062402132 -4.5321395165
-3.4861380366 -1.2836492451 2.2798175375
-0.9172481148 -1.4017745358 0.1717053862
0.6375612277 -1.3706405171 1.3289007688
1.2849695228 7.001985813 9.1422709292
-7.65009496 -1.455278419 -2.0516237278
7.9355851994 0.3543168564 1.86341846
-1.3411854961 -6.328285017 -2.4851399184
-6.7982415461 0.6030366803 6.5471711868
-5.8938851352 1.3891385667 1.5693159922
9.025940931 4.0727046031 5.7629680141
-3.8999253639 0.6208211409 2.4130348457
-4.9826760104 4.7944817172 -3.0443504392
2.2738213902 6.9573912635 -0.7850212956
-4.9620439826 6.8163929299 -7.5731696325
3.3469382621 4.2001922114 -2.6062276888
-6.6543310051 3.7955136761 -9.6977697786
-1.9189948771 -2.7625527448 17.8662951807
-2.5314774673 -13.2561326265 -5.0236199343
-2.2797913874 4.4035465701 -8.1483101584
1.7610795833 -2.9572527947 -6.1301857088
1.9064648203 10.7795397697 -0.4897196534
-13.2190803505 0.6409616301 -0.0392243419
-7.3098079535 4.1241546368 4.5062319005
7.0276979416 -1.7640665628 -0.5462011675
5.8128411542 6.9853175003 1.1052284355
3.4986813978 8.0431112051 -2.8175012111
2.3599545256 3.3689728044 7.3020557971
-2.1279276426 2.1781855867 3.5808205762
-1.2155701261 4.4328054003 -1.567544371
7.999885926 1.5551251868 -4.8920331777
-10.8166495006 -5.5919213734 -2.6584016171
5.8298723317 2.669084198 -4.5946896485
-4.0226095696 -10.8854673074 -2.0194766345
-2.1757553946 -2.8169875827 -6.7971881859
-1.4136704809 7.7762893476 -3.2159740655
4.3652115802 1.37682373 -1.4755210068
-6.73216602 6.2654566508 -2.6594621415
-2.7437224959 -2.3186848234 6.3585969719
-5.1939382257 1.9084277949 5.1118540148
1.6719075809 6.1637150859 -5.8064290128
-7.5046344805 2.7534166094 6.5762284217
4.7706264479 -1.6817855487 -1.5332176393
1.6495102064 -7.335353579 15.0130860327
-1.9344132807 2.9056841637 2.9737262969
-7.0151929313 1.8151906836 8.2547444728
1.175080915 6.4291537764 -0.7159936319
-1.6227868901 2.5310783839 -8.2218892843
-1.3795523068 4.2034494292 0.2875402009
4.542541596 -5.0364486288 3.1798989668
-1.0530087022 -2.686053766 -9.037070859
7.4486320027 -0.8042419005 2.7284485555
1.6215343826 6.4791186327 -5.1849310148
3.8023110838 2.989517469 3.1803221519
2.092904883 6.6789559955 10.1433967121
4.4317201063 -3.303144904 5.0371646456
1.4140567725 -2.9355712183 -0.4959065846
3.7813142037 -5.5842363554 10.8375937462
-7.5792664491 4.0386412136 -4.3733954514
-6.4850552097 -1.9449251407 0.6505099731
-7.6522269217 7.4354036464 -2.4322886033
-5.2612501577 9.3935300679 -2.4612729487
0.2351785979 -1.5374707882 8.4767187946
-0.0887640522 4.3376995645 -3.322677417
3.7477721702 -0.9763432835 -1.3199109487
-8.2521689877 12.8198797578 0.8412535435
8.0489020023 -2.7712671813 5.1781089056
-11.201020614 -6.2330977591 6.1618177963
0.7916590561 14.0748732494 1.2291517806
-1.3625081358 -5.423959445 1.2865865783
0.4576957305 -3.3211148082 0.6932270256
14.8572015901 7.1153937469 -2.7829622808
-0.6781148316 9.4486856353 2.9343683995
-2.4483047625 -2.6460387517 0.6066933809
-3.5801717472 11.7731774432 1.7459816642
2.8435856421 -5.8912212458 -4.3634501162
0.8963290406 0.0532345589 0.6991161818
-7.1300298372 -0.5165128303 5.0637691358
-2.0060599669 13.1987612464 -4.3802028181
-3.9346110484 1.7750534427 -1.8705478829
0.7759741543 3.7713531912 -6.9462885807
3.06381439 8.2619248053 6.8790655141
-1.1099157554 -3.9841946958 -9.9333939337
-1.3237061033 0.529238922 7.1412485744
-5.2660846577 -3.1824607257 -1.5332604284
-8.2227827293 -1.3350015064 -1.2796625789
-0.5285465178 4.023100916 7.3134528996
-2.7286229019 -5.5105461176 -3.1730597176
-6.3041242882 4.9939228044 -0.3934994204
0.1747871748 0.3906674407 -3.6488591966
7.9361688084 -1.0012172582 2.315890407
0.892894712 -1.8430447963 5.8880526445
6.1771911014 10.4920451068 1.4314360524
3.3905610635 -3.7705224217 2.5584655412
6.5395696355 2.3251759419 -2.1112090034
-1.0668572766 -6.0935869446 7.7701209826
-1.9753078399 -5.3837496368 5.1706618515
5.162117658 -5.7251449071 -14.3103176124
3.3243951787 2.0182543522 1.7415392792
-1.0997579323 3.545002774 1.0634569326
-0.6117089769 1.1468265938 0.0977379468
-0.4568655314 -5.0536393065 -4.8741763579
8.2348062745 -3.7542613259 0.0608117561
-3.5195696132 1.7036055947 3.9324454067
-0.550099306 -0.1604136132 -4.788852403
-5.822176441 -1.7417690414 10.4814725193
-1.827909113 6.3724871881 2.0004988982
-4.2266244821 0.9620486224 -2.0833369923
-5.5981439726 -0.7212961862 3.8734294465
-8.4185136169 1.8243489249 -0.7868471068
7.0502708793 0.6475215907 6.4020136931
7.4011796 4.9486987302 -5.1074132236
-2.4309045773 8.9481298915 -6.7561709508
-7.2406120191 3.0206795715 0.7224962833
-5.1691529217 -3.6199455861 -0.1144312227
2.7651234613 -10.1740924718 3.2143587233
5.473851132 -4.7033316587 -1.161281648
0.9559734258 -4.70845098 -1.0402254882
-6.2357725747 -2.0816591914 -2.2278599704
-8.2068475778 8.9143379126 7.4893328125
-3.7483356035 2.4487777396 -5.1591813501
-7.2551768719 10.2854659774 3.3129548149
0.3748942142 -1.1619012235 4.1086670353
-0.0756195582 0.2520807427 -10.7219821167
3.8686730196 6.1331677408 7.2632715015
2.2924789862 0.4214436792 -1.8990813767
5.5250998777 3.883594804 1.1032686068
5.7745606291 5.1614616141 -1.4201870913
2.5945429989 12.3807105522 5.1177497639
7.148820076 -1.9701467997 -3.8205743622
10.6593307511 -5.9325231528 -10.9433940897
6.8416711412 0.4820665628 5.2093908035
-3.2054840222 0.2970222346 9.4760359279
1.2363322993 -3.509741826 7.7149105364
-3.3805219438 -4.1709926091 6.5673952101
1.4093195013 1.9269446566 -4.1094008562
1.0991783274 -1.1692452278 -8.4191487494
-3.3627549386 7.8437007049 1.8595404162
1.2873258456 6.3246942189 -1.1436419387
-4.0224433288 1.5827431933 6.7391649586
6.3355882122 -2.3488852978 1.7550930686
2.6313324334 -1.9161834785 -2.1363237959
6.7984814376 -2.1373543681 11.7965555323
-6.8662301337 -1.5819192402 4.5515423665
0.8543102544 -1.6275132835 -0.3053142454
5.3189981843 -4.3764095909 4.2271931867
-5.8639090905 -0.0132294655 -1.4850214406
-6.4381768119 5.9945030417 -1.235742552
-4.9262439552 -2.7606990742 10.9888743318
7.5532897403 -8.7411579686 -7.8665095986
-4.9364149083 8.8558043085 -0.2720035555
3.3022601613 4.7272447717 -11.2240413456
-6.5719202318 -3.0666358478 -15.9225140049
5.5917493957 -8.8590150771 2.1836807065
-3.8003405588 -3.1339457792 1.3732412522
5.6031452928 7.6678882036 5.0591949454
-4.4813933762 2.8045274604 -0.9048326773
7.2928078944 9.120726769 10.4484064697
-1.3453556165 1.9638687248 -0.802136869
-3.8638744515 3.2850554805 4.0949089301
-2.453276645 -3.7201263347 -4.1096347411
4.8404787818 0.3066577956 0.9573243189
8.3572905692 -4.5122338607 0.2707774591
8.7524643698 4.7897630455 -2.7591302447
-2.0732215983 5.2812394869 -2.6185072711
-2.2240171816 -2.6517935831 -1.3590496867
-11.1570955417 -9.2212226058 0.5261570819
-8.4982066515 6.2447537686 5.3773351774
5.68273109 -4.5051514982 1.2553690438
3.6799060744 5.5611781374 -3.804196023
-0.5573141688 -8.2497265671 5.4485339759
-1.4818753721 -0.785498652 2.6305592894
-1.6562688917 0.0823148069 2.3885658783
7.4232695483 8.04786404 5.5949757563
6.2083656551 -10.3784947699 0.96568858
2.9074506809 2.0827654684 1.1720000683
0.2977677746 -4.2177139512 7.1816235379
9.9119830721 -4.0739707 -8.5507566462
3.9702703998 5.4125761058 4.4403269025
-7.8669432286 -1.2117282471 -5.1753117244
0.4727042216 -2.6481803274 5.0875434357
-3.4111997631 -1.591450145 4.2677236216
1.6315915582 6.6627113965 -2.1467228396
2.4369356612 3.9764094909 6.7018050089
1.5483241673 5.3374539247 2.8619133135
0.875115513 1.4147566812 10.4153460207
3.0023784846 7.3667155949 0.2233530618
2.932253367 -3.9009086556 2.3233862296
-5.5107640493 -5.9263963946 3.5145776701
-3.3088460121 -5.3587955178 5.4405295365
-1.7307827409 1.844792671 0.3392556642
-2.1625180396 0.2191458106 -4.9113242155
-4.3624340407 -2.6771183951 1.986199012
1.7535850451 0.0422121271 -12.0540026817
13.7411993756 -7.726829094 -2.5914436877
-8.5961344679 0.0536470188 14.5952033013
-1.357466281 2.5342704486 -1.6907913879
-0.8866350665 -2.1087188676 -6.713160587
1.6707106491 12.1007146269 -4.8626846085
2.4818574171 -0.2912033621 -3.7118174057
-2.6145807422 -2.6218636608 1.926811778
1.4200085845 -3.8301344434 -3.232383546
-0.6910848064 -0.1356411837 0.1169436223
1.1333854127 -5.0737138824 -2.7937799228
-4.0988715267 -13.8345497599 2.9975199582
-3.737205925 1.1894633166 -9.9210753716
-4.2142397033 -1.9552469016 4.447475453
-2.2381913009 -3.4323492654 -4.1927440937
1.6101760456 -6.4007836835 -1.0804485266
2.116348951 -1.8931420658 -4.1139614044
1.6723779097 9.3895776488 -2.8806487202
6.7973264782 -7.1650083788 -5.3961578539
6.6063860483 1.4938041092 -6.7555612224
-1.7349593159 3.2795692849 -5.490273085
7.8779074051 -2.8568331948 -0.7698313586
-3.9666993504 7.0584203757 4.006021557
9.3824704874 -9.2199602956 4.3053176395
8.2249073513 0.4915379686 0.8696071619
11.4320951298 2.908064079 1.1865411687
7.5755644462 16.9429331907 1.0056197635
-4.4605547815 -1.7136112018 9.1326420905
-2.6937788019 -1.6091900972 -4.5504519318
7.4028173614 0.4689184601 -9.3794354484
-1.2967088344 3.2306464786 1.2815507875
-12.4691209957 4.0396328023 -3.9160204364
0.9505408939 0.0642938763 3.750232389
-6.2462982026 0.6210663832 -3.1361273838
3.4551659774 -0.1074952456 -11.8495439952
-0.9719727847 2.7987150659 -0.802976558
-3.9705901083 -3.0964121311 4.3404409072
-1.0271844747 3.1270968891 -7.4861543514
-1.1987204884 0.9683065865 1.6539078202
4.9377310894 -1.2978890595 -1.0773887464
1.2068406958 3.4607169588 -0.20370462
-2.7962470564 -4.3168230282 4.5710779233
5.4578525534 3.5282571438 3.9681134669
0.9057868546 -4.6466487889 -0.0259837905
-9.6201254588 2.6580433564 -0.9736329514
11.5089464361 6.7140236872 -3.9969561707
2.5661296743 6.2185335264 1.2413864543
-1.1427709478 -6.4100230723 -5.4179627367
1.3116387271 -4.5934267791 -5.0358189893
0.6320076385 -11.5234854399 4.3214717614
-0.3541008615 1.2544566155 5.2545799236
-5.869423322 3.9989076396 -5.6688522586
-9.2587434302 -1.1340676671 1.9305776596
-14.3986965653 2.1232526484 -5.7293976385
-7.4081164327 3.2857633937 5.0925519047
4.5921418101 6.5157799219 3.180873328
-6.0648267046 8.3040997671 8.4793244348
8.4139995708 2.7376633682 -0.2908941765
5.9070546904 12.1095819614 -5.9775577205
-2.695463257 3.7855791703 -5.138132106
-1.013926736 -1.7987568794 -4.0197297305
-5.6155870505 3.3537414991 4.4499406726
-4.0876753816 5.4791368903 -5.966173606
4.6426767439 -6.4411351631 -9.1738988022
1.2328993189 -7.6035919069 -3.3312882462
-1.3883601864 4.2610303669 -4.9154369986
-1.8234201179 -8.9522758973 9.4841198005
-8.5640546763 7.2228998457 6.4760061896
-1.0072579902 -4.6272048751 -9.582519831
-1.1209190139 -2.3843709232 3.2094181877
1.2758431353 -3.4714772876 4.9736416759
-8.8900947132 -3.7425382783 7.7844448792
3.7715647275 6.9094318841 -4.9448884394
3.1920690645 3.0439092392 -4.2396292389
-2.754983471 -1.3745140176 -5.5355607596
-4.1214843523 -3.1577875435 7.5571413757
2.6471490656 1.6492446921 4.91613363
2.4942703389 -8.3974528972 -6.8865867975
-5.1243599571 8.1281975419 -5.9022383468
5.6058396648 7.4619917509 4.3149619058
-4.3600865709 -0.1186205457 5.9375293766
1.1692088909 3.096480349 11.6802025201
5.6517447002 7.9152281783 -1.058167888
5.4462930892 -3.1929921084 0.1047950697
-1.5367356075 4.1497291482 3.265234737
5.3973751504 4.341372561 0.2314085459
-9.4733107826 1.7431275462 0.8508286725
-4.122079465 -1.5095645867 -0.5284938078
4.1153716537 0.429754703 -5.1560782474
1.9531989188 -4.5143571602 -12.0029778322
-2.9287072926 1.0114958383 1.4421541067
-3.9431581028 -4.6076906673 -2.9871757737
-6.4143074194 0.1444565993 1.5269845692
4.5265729147 -1.8737430992 -15.1416942398
8.4254156697 0.6385748549 -2.2317974812
3.5250207651 1.7972097219 0.4994731359
0.6329095078 -1.6745824333 -9.0050055321
-0.4991051539 -3.1904306186 5.7765028742
-7.2815817428 2.0934328735 6.0655532662
-0.5129546037 3.1677067881 -10.7282166079
2.2298864163 -3.2571425677 1.3291973184
0.7185088185 0.1354509803 0.7045655296
2.6615959461 3.675777399 -4.072690532
2.1371879786 -7.9760949827 -9.3465828929
-0.42594151 -4.5620625403 -4.2801436088
-0.4393447283 -2.5539004006 -2.9671366236
0.1401227195 -1.3877424182 -1.17665153
-2.9827427098 -0.4674565221 3.4668977029
-6.3544531048 4.5587695019 -13.5010793681
9.0772735612 2.2821015567 -4.7445562167
-2.0636609807 -3.9836048788 10.6131718356
4.392771127 3.3841757735 -2.7732433516
-0.8379408108 0.4950230302 4.9781853991
12.1971918185 -7.2834758779 4.092728968
-3.0518794683 2.3628872779 11.2916085454
-1.3652758764 -1.2982446312 2.0528033299
-2.8369188895 11.0095322588 -8.3433064072
1.1421167729 -4.8985470143 -7.6628138007
-4.6733484792 -2.9865514116 -7.7279628354
2.1432266636 -2.1463874854 1.9703512419
-0.9915387035 -6.3965595237 -0.5699971137
-7.0250282657 0.0448997649 -0.6399074477
-5.029890479 -4.0067120338 -2.3939732165
-0.6943508242 4.3653786887 2.3333380588
-0.8419917171 -2.0434404621 1.4211129086
0.2867947357 -6.7059829187 2.3992654642
3.4306643079 5.9133883117 7.1422338139
-6.1327929031 -1.9051276083 11.7398170621
-3.8957236821 -6.1751553332 -4.2073899115
0.5577267756 5.666368894 1.5440800151
-2.3846860224 -6.0792091534 -2.026852277
-6.94840484 5.5908720002 8.5635476327
7.0440049678 -2.5144447691 -7.2299868805
2.0757041278 2.1696776071 -5.3460899621
6.0905480262 -6.3292799034 6.4792284068
-1.6080734364 -0.5124612179 7.9051354357
1.9147265854 -0.3974658759 7.5509001942
-1.5928300715 1.3199333561 -0.1469145352
4.9030036222 0.8618390661 -9.321688596
5.8238670518 2.2775269393 1.0363505053
7.8907894345 -7.6198784001 -0.5684815898
-1.8142181367 -0.14320355 5.4126860922
3.9090608795 3.5060144168 -3.2271629951
9.8250588481 -2.2802284611 -1.0344890692
-5.9644004966 -3.721062962 1.5709497094
1.2665169512 1.7768555367 -9.9306785869
-3.5969860298 -1.4389029845 0.4487685176
-2.3595405199 2.3603798952 -6.2012645411
-6.6259962668 1.8157270831 -5.3938351215
-11.8661999092 0.0092099617 1.2339318462
7.1730232253 -1.228194894 8.9148081425
1.6527265575 11.2844803269 1.8887755884
5.4496971565 -10.0997418988 -9.0771815618
-0.3728301509 2.2295503763 9.7248252748
-5.8793281687 -1.3601819033 -2.9765635716
-4.4749733181 -8.557309143 -6.3828449329
2.7337967422 5.3145564915 -0.0247290117
-8.3590156084 -3.8807735295 0.2421533395
-9.2075980366 8.2420813382 1.7118141816
0.509342782 8.7178978216 -2.0017279523
3.5068199292 -1.2813958637 7.9284799696
0.828440696 -0.7294971186 0.6238099774
1.5789744809 6.1246499385 3.5226534947
7.0031847001 -4.3987795243 -7.606894019
-7.7672427106 0.1384770101 0.7861299622
-1.8873953118 -1.8965038613 -9.1388243767
-4.8554471979 0.1241502051 -6.7166296649
7.4330153224 3.8613927873 2.6506975712
-2.3917579863 0.8279400065 0.6836887894
8.2823746527 2.0759831749 1.7824680298
8.8624960864 -1.666799312 6.3374593714
5.7851936643 3.5731497035 -1.2661332312
-10.5714810044 3.2302071062 -1.3378816455
-4.0955858699 6.3199854231 0.7708568659
14.2427062171 -3.8876571249 -0.5314600147
2.5832913355 -0.5730557981 -2.4777972963
-4.3007605526 -0.4021195382 -3.0610608668
1.6598678814 1.9525280476 -0.4610790757
-6.5651396667 3.5615968709 5.8148654317
-3.4358881887 1.8164180547 2.5900498268
10.9082788666 -5.7531258226 -0.4427018501
5.1586545571 1.5853123568 -1.9720839369
3.4932924458 -2.7097155185 -6.0036317075
-6.4996849376 -3.3039767898 -2.731402424
2.2881825058 -4.0069622471 5.1978716001
3.1583633612 -0.4666981666 9.8438382077
-2.4221870395 -2.653066757 13.1327100458
-3.7358300893 2.7925267455 6.2741026013
7.8998639672 -3.7878484143 4.0471147323
3.5469154943 0.1841918404 1.9327007533
-0.2702386121 7.6045986451 -10.8243136977
-7.1629854837 10.4554511025 4.7732747516
1.8794301395 -1.7070957468 -5.2577211637
-3.8149287086 6.5168060681 5.4628502161
-14.1893342006 -3.8761352443 3.8393366883
0.2030105837 -9.341782013 1.0816366154
-9.921139753 -0.9811885728 -2.1802639053
0.7086370707 -6.8396685862 1.7170467776
-6.8562370946 4.0269691449 5.1141345642
-0.8452635483 9.6224014088 1.1584311618
0.9645217019 0.40704761 -3.8639321477
-3.1641286096 -1.0692863385 2.4049855529
-7.1170214642 6.7766979892 7.2705524873
6.9289916378 -11.4008424509 -3.1115715781
-0.3255277231 5.5917788916 -2.6491629426
-0.0380234357 -5.1517654832 -6.780107161
-8.5092710191 -6.0783030684 1.8664818788
-10.1548168386 -5.5389418288 1.7496982096
0.2265813973 14.0796653478 0.1434422623
-0.1556127912 7.0817872191 7.3607579094
0.8498011339 -7.2683945542 1.1287102111
-4.4572136898 -1.1151460233 6.4364435438
3.7806452576 -0.7571533117 6.321125483
6.1321565618 2.8856844982 -2.1345973977
-2.8702801815 2.3064439281 -7.8318811674
11.2492402217 -6.4975187233 -3.5939366178
1.574400979 6.4680208412 -1.3323242084
-0.0069286326 -2.2990621572 8.6345131599
2.1028007226 0.3024651974 2.6888620652
1.1236630348 1.9085075207 -10.8263676891
-3.0256725222 1.3288096752 -2.2249691208
0.8045574726 -1.797879858 3.2160440623
2.2835727566 -5.0776979927 0.7870336552
6.6142952813 -1.0539226813 2.208610991
-0.533159196 3.716983048 -6.321715234
5.995082238 0.3476986967 4.8998656195
-1.5062259629 4.2304153335 0.589588938
2.7845062102 7.2748396677 -3.2304313246
6.7596406824 1.8583131094 -4.2394992728
0.3651725729 2.4216747688 10.4607753723
4.7989440092 -5.1024604702 -9.3721938832
-1.3283232479 -5.94685169 -3.4418480221
2.736038012 0.0612330037 -2.1500283064
0.5703325661 10.8685038402 1.5252202786
-8.1614807796 -1.5105333554 7.4012676749
-2.9957639876 -0.3259274242 -0.0209912082
-5.5562442311 -0.9939729078 -2.9219685225
-0.0495316499 -7.0340665032 -1.1476628046
4.1364845942 2.4299152433 1.2962545232
1.9465078639 -0.4853802546 2.1328965095
0.2394531683 2.7236387878 9.1744670538
1.4887335309 1.4914451372 -7.3134746772
5.6616284046 -3.6154494615 -6.1428859318
-3.774534083 -2.4489098864 -9.4897083992
8.2981564232 -6.1704227288 4.5749622885
3.7949980938 -9.2252125089 -1.8530587562
-3.9061799462 0.8909927519 5.3441540352
-2.3654282492 3.8383682588 -10.2122934708
-5.2805267803 -7.4631684396 2.5325750894
3.4158688716 -5.2672629663 14.5336125262
5.1047595077 -4.9535032395 1.4791047662
9.8689870402 -4.0893496701 -3.7503842285
-14.916746068 -1.9223297618 -3.5973379582
-3.5651855699 0.9868883517 1.5951403114
-4.6728907058 1.1632980271 -2.6185883101
3.2021929762 -10.5138422468 3.1392848776
0.307828497 -2.1121850502 11.9422197774
2.4227070126 0.5258059726 4.6598967989
0.8288093253 1.0654533877 1.311231276
-3.9520666708 0.8118926375 0.2978624554
-1.361616767 -0.6271721726 -3.0632723715
-6.3219426428 -2.8409178952 0.648120488
-8.9957654504 2.6006354948 -6.5986568202
7.914914376 -3.8620839907 -8.1959758983
-4.2376264036 -4.738119656 -11.5099092791
-3.9488899989 -1.4068064307 0.2955355003
0.4533806397 -1.2840948199 3.7713273241
-1.1336717619 -3.1119850362 -1.9863089817
-6.9291168094 -10.0492721955 7.3875601114
-1.407744922 -0.5584671736 3.9836609639
-5.8574502612 -1.5224848288 4.4376946996
4.6738023466 7.0799793348 2.0516061009
-2.8190724028 3.2149172418 0.228610336
0.9871634557 -3.8488614945 -8.33356698
0.2978705344 -2.6393245707 2.4376519258
-12.5763232246 -4.3298527325 7.6544258969
-0.2573609507 3.2339816316 2.0782115296
-6.3691750436 2.2117735747 -3.6119157235
-1.3544981015 -2.9912269623 -5.7304390773
6.9347318644 9.3561487597 -4.4291190965
15.1996063494 -4.57131132 -3.774776295
3.3432514066 2.566273511 3.4468130636
-1.1521520376 5.1248437525 -9.7816027642
1.8421571401 -2.2427646787 -6.0410776506
7.2885396348 -2.9858946227 -2.9655412866
-7.4188923631 -1.7011368097 -2.3078047443
-3.7278006964 3.9329057134 -7.0322782286
10.7931806453 -5.1796506363 0.9710643879
-0.9765185 0.9957796366 5.948040994
6.4354432408 3.5836032184 -0.1479147036
3.4641093314 -0.5973954775 -12.8966237023
2.3734670485 -1.5439238475 5.9492276265
-0.4483648918 4.3359033488 0.0773768941
9.1696276086 -3.009169883 1.3554575862
4.0142210226 -4.7699704433 1.1287621521
4.8654660529 -3.4308927998 0.3377093325
-2.0299130829 7.4891096882 0.5734023938
11.1031442369 2.6592192047 -3.6884717597
-11.2062856004 -3.5754081935 2.8028091851
1.2715362885 2.4644780007 8.8838305896
-2.4404583722 -1.0474277006 7.7318805978
-4.8273304285 6.8158687389 9.0089641335
-8.8416373755 -9.0453179542 4.847226928
-8.7231418931 4.4806576767 -4.3206902955
-7.7027678236 -0.9900833709 -5.8718493608
2.6156438087 0.0098183815 -3.513334123
0.4351457634 3.5212873552 -3.395927328
-5.0765058455 6.6617001589 -0.1998807034
1.898411765 5.4621777656 10.9171747382
-3.0915839002 1.363124599 2.1893081607
-11.6779043481 0.6390289172 0.3442113516
-5.3194342769 -6.1002525819 10.0433146792
6.1026242623 -2.2067274423 4.0733005187
2.788903117 -4.0364722394 1.0710124745
3.8706774041 12.3232100581 -2.8004692846
8.0989619792 0.6513171898 -8.017487827
5.7762742257 0.5204642518 1.2273550963
-0.8669430599 -4.6099262022 -4.8926563375
2.2424812607 6.5922174438 2.8377090092
-3.6471582072 -1.6480849668 1.7462258675
5.7825477633 2.093744518 0.3226367556
2.203480987 -9.4698283489 -11.3909495868
2.8550083586 -4.7422185627 -4.9615161674
3.6682895798 1.1230073971 4.7940370984
4.4740985656 -0.5745384433 0.9845387709
1.7737319266 -8.5448042489 -7.4668688044
2.8930923785 0.2325655935 -0.5838807339
9.8060384935 10.5062900251 -0.2440046313
3.6018571762 6.0454759535 4.2119378012
5.9578802681 -3.2690031794 2.6864584083
1.9180658244 0.797429458 -0.0188760684
1.9800084449 -3.3396316612 5.6551406101
-4.4328662081 -7.3579506507 4.3435975818
2.9466827631 -7.0453910627 1.8546300546
-4.3555437599 0.9740854939 -2.2228229149
-4.2841769023 -4.0218344719 -2.6429439962
-9.8924882656 -11.3252551962 8.8034636432
-8.5158419843 -13.1530418518 -6.6268101562
-3.6183491864 -3.3301943751 5.6476265261
0.407818505 5.1140775738 2.1397401816
-13.7120024628 -0.3269973719 -7.3905969643
0.3713197678 -2.6257356406 7.9010363683
1.5127900687 -7.1629008727 -4.6471028178
3.7148228013 3.6972765195 2.8132404019
-3.8782447067 13.7523277604 -4.4329622636
2.2018864207 -6.0237507805 -10.955185368
7.6887431472 6.2557600465 -7.1796988089
4.6410620016 -5.4380405831 -6.0712644377
-0.0168042279 -1.9650457208 3.8284056806
-10.1341374341 4.5030871338 1.6646959641
-0.1147386064 -5.0103111996 -1.7649894024
1.7972925445 6.9290469025 4.6051131117
-1.6363378033 4.195963081 4.107011898
2.4097355373 -0.673527023 4.8325708304
0.856802672 -9.7129917671 -9.5632849773
-2.5218123065 -6.2152768976 -1.1856494956
5.1461710436 -1.616075492 -0.4119935381
-3.2617849622 -0.6723935251 -10.8207169128
-10.4906162747 -5.7413260349 -0.2005259133
-4.81756541 -5.2820384154 -8.3295285159
-0.2979537918 2.8684819628 17.9915295498
6.6056252346 3.6500079694 0.752799548
-1.8936188947 12.4777367424 -0.8960657351
4.9340595128 -1.026332034 0.4409324505
3.0411019043 -1.9316686561 -2.6171345931
-7.2275000615 -3.8792776418 0.4283635732
1.6791846978 0.7838905701 1.4778705689
2.3094714337 0.4471501241 1.483782785
-0.149955509 -0.468972254 -4.456381908
-1.3608472789 0.451187676 -4.0341678327
3.4057792377 7.5711773139 2.225608409
1.0361437483 -0.909130537 2.4489846594
-5.8627151186 -7.1888881389 1.3396944759
4.0350728041 6.6016717648 0.3545043293
0.508504978 -5.310922079 15.9574310383
-0.3880486112 0.3024401114 4.9472426374
3.7939700821 0.895683326 2.2708026351
-9.7284819778 2.3418831458 -0.0534374451
-2.0455455261 -0.1721428681 3.7892689054
-0.9336983914 10.0800627914 4.7308993424
6.0513405056 12.0579593118 6.2069790155
6.7264599828 -3.6630565824 0.0537254381
-0.7372684985 4.9312800834 -4.2082538392
5.5534257985 2.2501373823 3.4231898059
0.8461267281 5.9133297316 8.5492351676
-0.0689259482 0.8537490755 -5.6799851223
-2.6051567614 3.7701035752 -0.2853775884
-8.7904036192 1.4719282115 1.3677363536
-5.0367386781 5.1527810925 -3.1021285514
1.9012962537 5.659097325 0.2950134825
6.3949846499 -6.6337803293 -4.7300022099
3.0981024764 -3.5995602348 1.6392538838
-1.4533314206 -2.8996617477 2.9930137543
5.5080939861 -0.2824231037 -6.297311164
-1.1058204156 7.355327326 2.92678696
7.4955079341 8.3982368301 -5.3046695141
-1.679678449 -5.3820400999 4.643593447
5.4035419468 4.8495615993 -12.8433396613
-6.6912531929 3.2759384368 -2.7404074139
-2.1682387859 -1.6880413585 1.7652975361
-2.5384879858 2.7510520052 -8.9605905002
-2.2237365009 3.8616972772 4.9060147449
-10.2025640579 3.4061938659 -8.017138388
-4.4842421165 -5.7848491059 -10.8648736614
2.5120024643 7.8555981719 -7.9547101505
-2.3448794537 -12.0861624884 -1.3018168343
0.2914303483 2.2999577004 0.5119359012
0.563556659 -6.0541002353 1.8575111004
-2.4792690781 2.9822524821 -2.4460901398
10.7345770271 1.9244089124 -4.9676873772
-1.6715060844 -5.224288139 2.9556163011
-1.7140111006 6.0625011562 3.0518147154
2.4533876274 1.8685993431 5.1812556776
-0.7071351552 -0.7518691319 -1.8598285453
-11.2942745627 1.8275697941 -8.0755429915
-5.2860787349 -0.9407735394 5.941328222
3.9509354602 -2.9579700717 -0.3290654607
-11.1404185338 -10.3127719577 2.748213966
3.570205974 -5.5544361485 7.1548128098
2.1180882474 0.5234403263 3.4485353447
2.5888924391 5.2351892327 1.6390098597
0.4266374706 2.8694928842 0.5655863955
8.3626202851 3.0430157893 -4.0029530473
-10.9914213342 -0.8786375653 2.3792519335
5.9813909622 -2.6163788689 0.1981965988
-3.4276303401 -0.1956038395 -5.4030198873
-2.259240776 -1.9421357763 3.6458877613
5.5158002882 2.4664927947 3.7530172649
-1.1788394947 -0.4663417034 -2.2865327637
-1.138004152 -7.4912044541 -0.6210455116
1.5455148782 -3.7797489631 2.442007741
5.3627750346 -8.3990089196 4.4449097736
7.6155998747 5.4991857548 1.2983821803
-2.8200157056 2.5025234792 5.2452801215
-3.0847477525 -0.8046794882 -1.1276608818
-5.0849138856 -5.1875962961 6.0662595053
7.4129378625 3.8473782193 8.2799041752
-0.9054102974 -4.8690137583 -5.4211986361
-2.6485690045 3.2466990726 3.8074888389
-1.3894776698 -8.8907718411 -0.9719508602
-4.9219263745 9.3461249204 -10.5827954307
0.2254577357 4.498167253 5.1048825958
-7.597167535 0.3164155294 3.7691475641
-1.3775059056 4.963257928 0.9666637612
-3.775839576 -6.0804893769 -7.4777427706
2.1522940267 -4.8055505811 -0.963595042
4.2138951832 -13.1758207943 0.0185993178
0.7072125431 -3.1504243416 -2.945872124
3.8055073411 -1.868541325 -2.9413908226
2.6009061333 -1.5637561699 -0.0957348925
-5.7725710126 0.1124459541 6.0375626983
8.3763052066 -4.1731745169 -13.706565167
-5.0245754826 -2.9963900475 7.0588877523
5.4824839005 -8.5545950779 4.6521530707
0.8478134013 1.5555892734 -2.3509924336
0.3959086494 -12.1857000348 -2.0022789394
-4.9331287341 -4.0141516788 0.7082656724
-4.4275345669 -0.0251485748 6.4411432832
0.5182407955 4.8310700827 5.2124439971
4.0832042868 9.9766002722 -1.7010180949
1.9987169909 -1.5602693827 -0.2847277816
-7.6085989834 3.9769793514 -0.2416881201
3.8564343309 -5.0032160946 8.5906353516
-1.8437872213 -6.7008629304 6.2171229277
5.3728536889 0.9716256617 11.3807242762
4.2986677512 -3.8738733148 2.8071636164
1.1928504298 0.461886931 -7.0966472343
-5.5182828596 -9.9946358912 2.3451495643
-0.0741441779 -0.5808924373 -0.5513641533
-1.5866394954 5.0521052556 0.5650439313
-1.0954204904 -10.4202528757 -2.9643276677
10.6090888287 2.7950970271 -0.3693746286
0.8414955164 -1.2052623048 -4.82113412
-0.0809127389 -8.2090996344 10.7185839185
5.2526943324 -3.1001023048 -1.7087805793
3.1481445393 -0.1720885312 4.1501226399
-2.1554790331 3.6983300107 8.0126606877
4.8343342859 -1.141419642 -10.5005678649
-1.1508033606 -7.485096984 8.292479773
-5.4573359594 0.0069165571 -3.5075629249
-2.1328511751 -4.1343038564 -1.6955751789
-1.7025170258 10.0363530931 -6.6958348071
0.2361157185 2.7121783803 -7.6407010885
-4.6062707209 1.1930389701 -2.8216349449
-0.2658721204 -0.7030951158 -9.2362286935
6.7194975261 3.3610266418 2.9367920325
-1.1973075403 -0.0422715799 11.2634815038
6.8171937754 -2.2873806359 8.7536588918
8.0755898958 -1.3064124226 7.3790710614
-1.6527880257 -3.1105097736 -7.8550565461
-4.5607491892 5.8618039259 10.3195025715
1.5549595242 -10.2919698726 -5.2780145139
0.1618463652 -4.9779606738 -2.2773260678
-5.3843379221 -3.2211173034 1.5643330868
-1.8475396449 1.082179028 -1.9708212623
1.1528577336 0.908048055 -2.8983655039
3.3758675029 4.9700982311 1.8953870912
-4.6303841529 0.9699758715 9.7075860904
5.1561435072 0.1986082279 -10.1370219429
5.8547323244 1.7460906238 -2.0372795349
7.2075310581 -1.7265175671 4.3719826027
0.5526992206 1.8698054076 1.7627584772
4.7125152095 5.5076178961 -4.4191926948
11.6467068774 5.5683241226 3.6557719008
4.6152193282 -1.3678771997 -4.462554796
9.1107968417 -1.9672195928 5.730034491
2.9513582935 4.5501765903 -3.5622742468
-2.2626722712 -2.904973023 -3.2601037973
6.0703195547 -0.1503436461 -3.8897938549
-0.1748794665 -5.0553797937 -7.7416267714
-1.8842671593 -2.5484323876 -0.9828743914
-1.2247973363 1.5770022477 -0.6868304598
1.5949101426 -1.6980920243 -0.8395701881
-8.651419928 -6.7718092771 10.9825136035
-5.3890163753 0.0502203639 4.8159072471
2.3715765065 -1.0279203415 3.8977358477
3.4767991818 4.0246764002 -5.5361352123
-2.4543578814 -0.8121639468 1.9985347636
1.595225398 7.3102731443 -12.9842297317
-2.259576704 -4.3832273272 9.0798383529
8.0508174118 -5.1829722272 -1.2499284164
4.4268577481 -2.0236320337 0.4251736485
-4.0930816729 8.5894079673 2.5894955247
-3.8302491027 -1.8403134086 1.1327454035
2.926763513 0.9471357666 -1.0343381231
-6.8229703199 -1.3006074868 4.5662138116
-3.2182846434 1.49940861 -8.141299465
3.2500649322 4.9393328733 -9.6131891139
4.5346587731 0.4891584395 -9.9519997171
0.4883089734 -3.2400322261 -4.9718548538
4.893644238 -7.4348156628 -4.8755305927
-1.2532335307 1.5526299059 -4.9924570045
-7.2781658306 -12.011312133 -8.6500401713
12.1768669826 -0.8997603553 2.9012002298
-0.1251331722 -6.1408563704 -0.3295844035
-2.6445601319 -0.7006342356 0.4557521022
-4.3964042861 -2.1803783668 1.4511722497
-5.1516801113 -6.6849645061 -7.7410937321
-4.5111401573 0.2516155414 7.7096496136
0.853907091 -3.2124968829 6.5371576488
-0.0462224633 -0.7826949362 -11.9805915066
0.4356177532 8.2349355844 -3.1794896479
-0.9404312938 4.0277787888 0.1173883456
1.3609232898 0.0473838832 7.3502377055
1.8380282439 3.5188371709 -12.9051958517
-0.7769484612 -5.7758538964 10.5208239973
3.3812746552 0.5894420585 -11.4949877507
-5.4603119077 -2.8879376222 6.6480959038
-1.3410010304 -0.4206236204 3.1092566698
-0.2930208317 2.1064685865 -2.6849295826
3.4988787787 4.7506335028 2.8882624225
2.0211993711 1.0163657457 -4.2675234841
0.1058299729 3.4388849872 3.4190765602
-2.7565940367 -1.2821075747 3.4771415876
-0.4391545231 -3.3296783956 2.1793377506
-1.4553828324 -0.689453419 4.5302076232
4.4456598618 2.8842189868 -0.0824642613
0.5611070748 12.6977656669 1.5028967846
1.3422327943 -0.1502583541 -0.9352664542
4.7795535695 -1.314221834 1.4846518378
1.3197139406 -3.6027963561 14.3647490573
0.459552069 0.6930527694 5.4746490617
1.7704551471 -10.8702215427 1.8751731469
-1.2646418219 -3.3662877915 -3.0159847735
-6.5735499923 -4.7119213773 6.0310143521
6.1471390558 7.7203445133 -10.3187496909
-3.5103199009 7.8465569039 -6.2905453084
2.7581129933 -6.6514554121 -0.8791585081
-5.4192947108 7.7076220596 -3.8916533182
2.5860227213 3.8647582383 -6.586021235
-5.1033863532 2.9191530331 3.0511729916
7.426501971 -6.6970842787 0.9566021745
-1.0161637915 3.6822054119 10.1839500243
-3.7711141204 4.1904601763 -2.566824771
0.2303010031 6.0987116626 -9.1926154662
-11.2099488395 -8.0839531125 -1.3898217966
2.5967377751 -11.8808091209 3.578563522
2.1823826452 -10.7649323804 -12.2797919223
8.2217544369 -0.5804664445 -1.5490879226
1.4214429555 12.0086473256 -2.8819017256
-6.0215704978 2.4261106708 7.5380358606
-2.2773550271 -10.0818552615 -3.7331475177
1.8634527919 7.5347743927 2.776460853
-3.7547852917 -3.7464867236 2.1002246217
-5.2475377405 -3.9458551498 -0.8506861419
-8.1614483973 2.6409842471 -11.6151052534
-3.8439974378 -10.4575483324 2.05051275
10.6735417769 2.8399794578 5.0508972365
5.4373272589 -6.433855839 -4.3050023254
-0.1653538336 7.8442138697 -7.2211236234
1.6445856131 4.6763147029 0.7003095662
1.1888371882 -4.8105418078 -6.0876539592
-9.556709347 3.6217195307 2.0871070055
-6.3148448509 3.9204776502 6.221692995
-3.8438951378 -7.809023215 5.7171162442
4.7706131995 5.3477290429 1.6667915607
2.2773521387 0.7870390441 11.8606164998
-0.2580879473 7.5114086495 6.4618577009
-0.8702395742 -0.0208367229 1.2594286714
-4.2708709502 1.1447769725 8.7012870538
-0.2350455917 8.7990161356 6.465442925
2.1828430268 1.7060356865 4.0496582342
-1.7078021998 -0.6046728336 6.5752941151
-1.1161672012 0.5925259932 -2.5092687871
3.3564429762 2.5364998076 -0.7458896069
11.7104818368 4.9485222258 1.6524554239
-10.436373827 2.64069444 3.8147931224
-5.1521688001 2.7663841092 1.9885776053
-1.0125915518 1.0339192943 -8.3148278309
0.2386312362 -0.8832139071 3.4758062629
0.9496023188 3.6226302952 -1.7503313032
-5.1708165995 9.5891208053 -6.5960824115
1.1574131362 4.9969588516 5.407826994
-0.6909817421 4.5011640259 3.2419549719
1.7466669244 -4.4349611614 6.0832267208
10.2913984955 -3.5111626387 -1.2972676267
-6.2381324605 2.7077296168 12.7263479598
-11.1950207249 -17.6688789156 6.2167604875
2.9855507163 -6.4633144828 -10.6705471022
10.845225077 -1.4000341877 -6.131631812
0.8098579073 -9.617521905 15.4740400326
2.880542528 -14.6287545613 -13.0021527233
-16.1584612164 -4.0230270128 -8.7000565561
3.2612938445 -11.5887842958 -1.3269049832
12.3761231706 -7.4563814084 13.7063801984
-1.1953097746 -10.5306085777 -16.420922575
4.8771104344 14.4790113681 13.1018223594
2.791493578 -10.1222437794 2.1815996967
3.9578644551 -14.5202811832 21.8160439642
20.346720294 7.2256260805 -1.2102958125
0.5068160958 6.4174475671 -11.8797738056
5.8721277738 -11.987208468 12.4459973274
-26.6440241367 -4.2531920762 -13.4639733076
5.6176455259 2.815790233 -0.8845272296
2.0837429196 -9.2872926481 0.7987961068
11.6039287007 2.0951134476 12.0147567349
9.3981318664 -6.9032020946 17.6565223623
22.4822861118 -4.6753973968 -1.4594576794
-2.6132296515 -1.2117317596 -11.7665960087
-7.7374272156 -2.1673821893 -5.8961063675
-8.7359276823 7.543866415 -11.1629187505
6.9045521465 -20.0981656392 1.0367440245
-12.1558892222 1.4536751588 -12.375055788
-8.3380947275 5.480427701 1.1097396136
2.0393178215 7.3085397868 11.347159822
-10.6112639566 12.0501696271 -0.0771707476
4.6896780585 -8.4548159401 -11.2861723861
-0.9897571816 7.2363472581 3.7065458376
43.3435143133 -16.7475938755 -1.6956984111
12.5154679492 -15.0228955323 6.7825541959
28.9580036991 -6.1713457417 13.9395447001
7.8206023896 -7.4638731475 -15.9596740053
-5.4088795389 19.6136815895 -13.2644953668
-7.1594678436 5.4213267958 15.6345124681
-13.6951523649 -1.4370281599 -12.4248426051
6.9076972008 -33.345648102 22.5550914728
-1.9529514684 -8.700483643 -25.0929548043
8.6619589034 -6.7395461531 -1.5719240928
14.3227492321 -21.7880219848 -0.1756116911
-16.7641252944 -5.6658160257 17.5772544035
8.7579058536 -18.3819816088 -15.9521208769
8.9720248764 -5.4842802776 -2.3343093282
-14.35234757 -18.4222368819 2.7575457588
0.1513281951 23.0523312212 -6.8953258906
-10.598672407 0.8568862862 13.9461434622
-2.6288316293 5.6130385032 7.2536476392
-0.6622856302 1.2493026232 8.9136474832
6.1751563232 8.1883945626 21.3469565631
-1.7809196268 4.1308391501 -2.060620577
-2.9256308251 -12.4811829327 -19.7479379335
10.5278580189 8.9807788603 8.4771570445
-2.3305099749 -9.2086036671 11.0969750682
7.1007298749 -15.8280406737 -23.5276834487
-4.9256221673 -12.2356221467 -16.5849557585
-1.2983527487 -0.137364281 -0.1892427612
4.900084505 -5.1551094459 -13.1034426919
8.8181372211 -4.6202666332 -24.570243221
-2.2942961036 7.4916149646 -7.4259738673
-9.7372533478 -19.7272511656 -27.4767136529
3.7045106848 -5.0618808768 2.4399971514
-6.8363677765 2.0844179001 -17.0256028703
-4.2868418846 -4.014774261 -14.6216896802
12.4988618713 1.2900905929 -4.86998932
13.9451771464 2.7601916335 1.9782909805
-0.6387590457 2.4294398003 0.1434145943
-8.5249599388 4.9753849175 -22.9274240814
-2.6418027866 0.5671631408 21.5996156199
-2.4213953814 12.2817686108 -11.6623878446
-4.524115177 5.9483316039 10.6530700797
16.5180623655 -21.6762464718 2.1033448932
-15.83574909 -0.1072015774 6.1653441322
-9.5776843683 5.1090151358 -16.5887296722
-11.1233531617 -6.5624333224 -11.9714516976
-18.4066015013 6.0253735075 -20.236033418
39.3048003688 -5.7829803973 5.5608700569
1.050813444 1.7331772867 -15.0311346151
-0.8023900012 2.0239796045 1.5914149938
13.3993988396 13.3323633333 -13.7597628722
-28.1831727383 -6.3229762306 9.217034042
19.7802055036 3.1285303033 -12.7422808095
4.197770942 0.9705173717 9.4854703782
-18.9833886667 -0.4676695524 3.1840024229
-12.4396611394 -0.095239868 -3.8972835134
-7.6238289763 -18.0626177958 5.6980862888
-1.1633555943 17.7919083155 -1.9605974085
20.860797781 -6.0559199701 -2.8312726623
1.8090846152 26.9086012622 5.9929514366
-15.1676118365 -3.6698719262 19.3021139151
-1.4943957339 -10.6759073742 2.6667209526
-8.7798709872 -4.2872388271 3.0292078833
0.3880585566 9.9961650788 5.9455724829
-1.3230641456 -28.9717355744 -26.6426771892
11.2027554903 0.3578395 5.3801452011
-0.2056178748 2.8421001808 2.5964707437
18.037625218 21.6590133712 1.067444731
6.0363428389 -11.1707388916 0.288726459
5.1727887686 9.3721214394 -5.9266734974
-38.6682025431 3.7212588691 13.0674992006
-5.3905204414 0.7599039805 -1.7187424273
16.339665913 -9.3934664783 -1.0160017921
21.1415522772 1.7996186982 -12.9755853836
5.434514236 3.2776310196 -7.3324769006
14.4874587018 -2.914278479 -15.0293971873
6.138340391 3.9081874934 -0.4884125882
2.7826416598 23.8317795532 -17.3453509378
6.6647682898 -8.6470410615 -11.4262564574
4.4320412159 -6.5878178907 -8.9195741347
0.1960173898 3.3759458325 -22.676734843
-8.0692503895 -1.2735577074 2.8323430689
-6.3630327094 -2.488780909 -1.9198523065
-19.3645322074 3.5580113349 -4.7014756843
10.7353184323 -8.6368562185 -12.8766414822
0.4734545796 -17.0830334735 -2.2906810368
17.3164018703 -2.9665909236 20.735434996
0.079389552 3.8574793607 -7.1601932855
-14.8522125262 -2.7570913492 5.0785373896
-8.8061509031 -10.0697416092 -16.0676103302
-4.483547818 7.0720325017 -6.2813189211
-2.5447642107 16.1983455041 5.5786910563
-6.6321296683 -14.4535853011 8.3783592866
-11.6787336108 -8.2606531447 -3.33992829
-0.3084413217 2.9639148911 5.0044275853
18.0292015425 -5.6761251485 13.9367529926
-0.8837647667 -7.1420132326 -20.6517877406
2.3091981303 -12.8586912125 24.7234303118
-8.2682837145 -2.5147660563 0.479508328
2.6663281729 -2.7021708278 2.1865764657
6.0643312794 9.5886509512 -9.0636479332
14.6580489857 12.6147564226 -2.519221349
6.9854628674 6.0461890039 -6.6676163397
-16.6577586271 2.8205505801 -2.4233851306
6.9773552167 0.5985938501 -13.6044127127
-0.0350702436 -8.1200192702 -5.2826591154
-8.7501933324 -12.5957754674 -17.6709215307
1.9908796871 1.6429960094 -10.0648910888
-5.1420049101 -15.1621423619 12.8962915891
-24.6696997318 -11.2746722435 -14.3051821781
8.8538558081 6.513692764 11.940937137
-5.3159191789 -16.3213800082 -0.1104309356
-10.9772774894 -1.8742916255 9.58622055
-8.5506144692 10.4833020928 21.0210208064
7.4945799901 11.3345680113 20.5990046961
13.2907398791 4.7491185116 7.7935789335
-10.5800622893 27.2664708937 2.8130542204
9.354028004 21.8888973311 -5.6839831224
9.6335662959 -7.1209111516 18.4509019565
-24.6492557491 0.8460089863 -7.9616849101
-8.6909371098 4.4613598511 -0.3828738028
8.7068801655 -9.4108131059 4.4163271996
8.2799295451 13.7771020221 11.0175200228
3.5357483715 -2.0291351732 -12.576613426
29.0887424841 -4.6729560034 -11.9450628748
18.3246655777 9.2587815659 -18.1945363796
1.8487261165 5.4557646308 -6.4931097876
6.9099015496 -7.3576292012 -1.2711543752
5.5072611772 -19.8555415941 -14.4809991738
-9.1649986154 21.6353090212 -20.964461939
6.7306661631 -1.0666882166 -7.486453513
-8.1166465759 -3.1100320913 1.1314032455
5.4240039571 4.6735026683 16.635264262
-10.4998170107 5.6049405933 -2.3482822681
-1.7781941415 11.9203201669 -5.9488101172
-7.3930391573 -7.1346123222 -5.8492793852
6.9271592775 23.4088033712 12.6685501414
26.4107792677 1.5472181344 4.9609826425
3.0182279413 -9.7136933353 -6.9891775618
-27.8735080118 -1.2879136157 -23.326446195
-14.5094866323 -5.4480647058 11.0369059388
-16.5716790676 -11.5594238818 6.4565615234
-10.9522570763 16.6032885773 -9.1444442533
5.6368243367 9.7715590148 33.3739554504
-0.650442839 -24.2345230489 -3.5114132863
-6.6793081815 8.7306107981 10.0668416605
-23.0055932939 1.3495707861 -6.2745947097
13.2138909522 1.1556660248 -14.2046537355
-18.3700493323 5.7891873321 21.2982750705
-9.5045881498 4.5092058238 19.3615220764
-24.8676892761 -13.0230988124 -6.799043248
-16.7119467627 -4.3393935287 4.5459809297
-0.0591911419 -9.9689652418 19.886378466
4.2958463311 -13.5920669352 1.8169278079
-4.339927711 -15.270746571 15.1516620694
-22.563292885 -19.2952839737 -4.3677141517
23.5597024072 -24.7468389101 9.6355715933
-27.1040335346 3.6185495701 24.3446642869
1.8497720769 19.343326457 -8.4103344763
21.1717729875 0.4198217435 13.2419143346
7.0822754158 -20.8827966959 6.6321867888
3.0723267802 -0.1573329506 -3.8206619755
-11.1478200416 4.7672356912 5.6627543716
8.6808345259 5.22409554 11.64279189
-10.7450596543 -5.2545219765 -2.2152456897
-1.6909609091 -12.0450121254 -1.1914403586
-7.5339713134 0.529145392 4.6908704889
4.2631816386 16.954434563 11.2823307508
10.5061986153 6.3028317462 27.2792783842
7.9247011214 12.2775992949 -3.1768965189
3.653226831 -7.8575233741 -20.6712468915
19.1582367531 16.2720165143 17.7728861533
-22.3164563065 -25.6118079623 17.2740801001
-2.5353398693 20.3902274618 16.385866075
-5.2694148418 -19.2099014891 -4.8401476206
4.1553275512 4.568652656 -0.6391219441
-9.2677062705 -1.5000100584 -11.6850676666
15.6909475628 -10.4330896845 28.5162672089
8.8577499394 6.2495175064 -22.3706653536
-18.8236106312 -4.5295482749 0.8148716585
-17.1870620694 10.0318650686 0.4230193631
10.8213924109 20.2881279378 7.4470969116
-2.6836629608 4.7189810421 -17.8697676997
-13.101063577 -5.1060123813 -24.1027874291
11.7913471014 0.2478276186 17.837717365
8.8368987895 5.2222634717 -2.9947730123
-6.9657295431 20.389808628 -7.9977998294
9.3401318452 -6.443729895 -12.3826896054
9.0939927169 -6.1104921302 -18.614705458
7.8737984234 3.8117919941 1.0589078452
24.2541214132 4.1484881552 -0.224298622
-0.2080180288 -8.1476539693 9.1109380459
16.4043657824 17.3097949557 -29.00978533
-3.1988373942 29.8050930182 -10.3555151788
-9.2393800287 4.0111692961 -1.4215364208
-10.0771882043 -12.1615115286 17.3885263534
-3.3636494378 -14.4795373568 17.8019502219
-9.7591084886 -10.4987752935 3.0327203641
-0.5067060327 22.2115278717 -1.5597043548
-19.4751753347 -7.9742402749 0.0626942755
-14.2082945857 11.6496250832 -4.7314438702
-15.4430227134 11.3209494113 -20.0182598354
11.1830280115 -0.3046663338 1.8986629392
-9.9307216022 21.4013016766 -17.6026114576
7.2934904439 -6.2626791814 -0.313006235
-1.6833489166 16.1926118869 -8.4079660262
-14.6672304588 3.8892372876 16.3324088285
-4.611213392 19.9728533657 -13.8639272568
-5.7440877393 25.5926151951 -4.1825611259
-13.2197829011 -4.6968916904 14.7929125191
-31.7766942929 14.5662273311 9.2704898581
5.9551127136 -9.751581261 17.458768996
12.1685514135 9.1065286554 5.9245689098
-17.5505561357 -8.1963948488 -3.7564821232
5.0419935426 -11.5764086879 -2.2831454138
-8.2633286639 6.5035722488 2.376228464
2.914554251 -6.3094627042 -8.7202754279
-11.0130003936 -2.408557838 1.797779946
8.480251119 17.5938790728 4.4619992474
4.3094833441 3.7656078728 -26.4168231275
0.041908141 -16.6309763267 -1.3109528877
6.5815498184 -3.2884132905 4.1996604134
0.2026493696 -8.6510655954 19.7191529815
6.974873976 7.8801523505 -3.6820883217
4.5310338953 8.9244179687 -7.0346517495
-7.7473267395 2.4443859877 10.7506027578
29.4535222681 5.069624451 -5.2570127214
-1.4568137496 3.7247339059 -11.8555041574
0.3159772965 10.038158377 -11.8951303739
1.8905613404 -21.8774100284 21.6936990462
-15.6296538611 5.2201445623 21.1679991063
-5.1612446089 1.5169086832 5.5260204082
6.1969387512 -2.2272135358 -7.1329628881
-8.6786937732 -7.7910827597 5.390901227
6.3823102173 -3.4469514172 14.2371047835
7.0077849004 8.2670796083 -5.2472235364
5.6841140846 2.542489462 -27.3674533449
-4.7250144535 16.068798608 -12.6163710528
-6.8802019204 7.8660798084 -11.1721405719
18.446913153 -5.0515533425 11.4104935766
4.7058904013 -10.0887123388 -12.2827531647
-4.8000317005 -2.8634071547 -2.0664865598
-15.6429175267 -11.1716679827 -3.6890111974
5.5974005001 -7.6578610646 -1.5738477657
24.3221217848 -3.9025756772 -2.0122890399
12.3018771194 -22.4104977062 -22.8283038174
-7.6227198264 -3.4159264112 -6.9013846626
13.8465884888 -31.3943243789 -12.9139268692
-1.8828225743 -10.7437726088 -15.7834085139
2.9794200754 -7.8637620627 2.5370552699
3.7415021486 -1.0944896955 -16.6713043748
-9.7693957273 7.720057485 5.2403254882
-23.3199054011 -4.5694007718 -6.3471309337
8.9724441001 3.474131817 5.8553779086
-3.6854594566 -13.520647318 -13.85401925
-11.8644305452 -18.9835404791 8.0048768521
23.9362681002 -3.2751253234 -5.1048414806
5.115204429 -2.9804039649 -10.6799824912
-7.1948894074 15.5635687971 16.9177252044
1.9668331363 5.7450851794 0.1119454231
-9.1326067204 -3.071924032 4.1077487871
-13.9951821629 -16.6274521724 4.0113241131
14.609262597 10.0426500298 9.8873476191
5.2238373311 7.8234856357 -23.0534110121
-9.1093255122 7.9886751673 11.5397036861
23.9475647946 -21.1702188915 -13.6097804533
10.5705888121 -1.9744326108 -2.0387343077
13.5335522505 -12.1941271859 -4.2648426082
16.7473867381 -7.9111486337 -0.7397298481
6.597695689 23.3783058045 11.9753763419
1.6233903518 -6.436296655 -10.1602450466
21.8512729694 2.0852505889 5.4517709409
19.32781647 23.5959191801 -27.0811139527
-19.8723634599 7.4940553744 -6.9131639988
-6.0988428929 -3.3650214241 -2.7639403752
-0.9990153959 -16.5317197383 -26.5375812871
-1.0499441105 -1.1445816894 -21.5359473736
-2.7467449859 -12.93112245 10.4790123609
-8.4585356441 -1.3128391731 -23.5890718193
-1.5452279269 0.9276354286 12.3335810092
8.275625489 -9.1543001506 -17.0149295584
5.9044875426 11.7026566289 -7.8645051175
-13.5287693503 9.1613539517 -5.4091594229
10.6632998576 4.8038970791 -0.5288267307
-12.1057110962 -8.5274207009 5.1348416518
3.4767454542 -11.3247186424 2.1182847967
2.2411552198 11.0563609044 0.827361864
0.8137818665 1.0087625894 3.6117200783
5.5218846883 -15.0577520069 -8.643306789
5.0882383025 1.1166174723 -5.6964061205
0.5053095038 13.6287283306 9.8944858793
-9.5087198856 -19.560847188 -8.1372078924
-8.3324725208 1.9911648034 -15.0696986994
21.8962930593 -12.7563317909 16.9174390367
2.1982414245 -15.2987111074 -12.5253717874
-11.9375805044 13.0497302396 -9.9204928748
6.0713027002 -17.6936446759 -14.2994944599
-9.432846961 4.7508465042 10.7898609871
4.4769508194 3.787171448 21.2198521212
-1.0714293441 10.1370617244 -1.0662684244
-15.7711526341 -7.5498311749 -6.2902840325
-11.1708226554 20.9525559401 7.5682725707
4.259957274 -9.3717273207 18.1678760894
-1.594884221 -18.4627783748 24.3905054957
5.3035274515 -7.7402591833 12.2208245206
-10.3962832594 -15.8582138478 -10.7466594899
10.2468992583 -0.4330607079 7.22806266
0.8055118309 -18.2976062489 0.2693341452
5.2767662105 10.5276438952 -5.3905038894
11.4333597675 -4.5943569205 1.1945171619
-0.2250796567 -3.4105692194 9.2716743051
5.8173776002 5.0055891189 -2.6227763852
-24.4630667321 24.0123719372 2.5836308117
-15.4783251631 -19.1030111475 -29.3010916075
-6.9742693968 7.5471417811 -16.1256274139
-7.4722441467 -17.099784815 -8.2330443491
-19.0121459825 10.2584945445 -4.0051077332
-16.4738007411 -15.2230393822 -6.3749094567
-3.5017072485 18.4263907806 7.6576117066
-7.8998539846 19.3383749287 0.0910351434
-6.6515372768 -3.1010155716 11.4012080914
-18.0075303674 21.1176384189 11.4872094175
-2.5528903218 4.1982782092 -4.9214812795
-12.9964088669 9.1364822985 7.8796396662
6.6402759559 -13.0196254717 4.714366338
-4.4485078301 -5.7897881706 11.3405748783
-1.9214290382 -10.7864061052 -6.0304039933
-8.5360474112 -5.7357033485 -19.3360442933
14.847880611 -11.3306332519 -0.6359123222
24.5260098509 -4.5714668493 -0.3116309339
18.6560542459 8.9896229914 -12.895440332
2.1639980049 26.578801777 -10.9895373737
3.2770426346 4.491431346 -2.5910800228
12.7468778899 11.8741824885 9.0854341856
-11.8862437537 -7.7858345927 2.3572321351
14.164562363 11.925302069 -12.5707493364
-27.81439738 -17.5069798678 6.889363095
-20.4913084069 40.3081611611 20.9739624803
14.0639512543 14.2118061164 -17.1360517055
-33.9231940333 -4.0090546066 -12.9625977477
18.0215512886 -4.3920264949 2.6594329995
-17.9061963425 13.374255972 -12.9048938491
40.0968133979 3.7062574608 12.4080878252
32.9662544049 17.1667735023 18.7548318606
13.4459528246 8.1742445475 15.2721753644
-1.9112235593 -5.1543398702 8.6427543417
-18.7147053547 -1.5239091565 13.1001961613
-3.8280809509 0.944376372 -2.7232936712
17.6109227653 -3.3780142723 -1.9693345311
-1.1554261864 4.9688433019 3.8033398921
11.1196034503 -1.1707101355 15.0832240505
28.4067503119 -10.3577658074 5.5371173629
8.6271213654 -2.8079004409 6.2456902274
-10.0740673626 -0.0368647257 7.8134731604
5.7615761291 12.5931385301 -0.574006936
9.9460316929 3.546711497 -17.1372409348
-1.9731016029 -11.9011191794 -7.150727006
-2.264283658 14.8115099775 -20.6121550007
6.634793197 9.1725511932 -14.6616611399
8.0874011653 -10.547522686 -10.3778852313
4.8581926291 -6.8964467358 0.0272907647
-3.8026607487 18.9067073651 -13.7843170878
-11.7790020784 -14.1376241702 1.5287587498
-21.7351966762 -8.3354210886 -13.5531144974
20.716667544 -5.9658831759 10.6785326824
20.0756516223 -5.7645530155 2.5879519078
-4.825871572 -6.5222583464 12.440893814
-7.2784664774 7.3733090236 5.097928604
13.3215888791 27.6541329238 1.4672175692
11.2206997728 -3.8864722707 -16.9886374044
-3.1350519283 -1.9594126657 -1.7197346213
-2.3256374304 -7.481573195 7.9066395958
-4.5701993386 0.1238935267 -14.4742640451
16.6807489621 -2.5233130014 -3.16398337
-14.6733906946 -3.9878397385 9.9703592368
3.5589963476 15.8626557203 -1.8771567836
-4.2348402753 -12.3403438366 -1.4610948955
12.7553954119 0.1273720116 -9.8424147703
27.7692674572 -8.3209801176 -4.2256812396
9.4630456372 8.9866712665 -14.6766223277
-1.5148036574 -1.0807465373 -0.7503962612
17.5530225227 -5.5779639394 -8.5059700737
-4.7417048562 -1.138349949 7.5161773223
5.914012547 -14.5091761012 8.132492411
-10.2850032383 4.4892760531 -13.3095620092
23.1747306857 11.2921144591 -11.7236452086
20.5345595634 -22.2247620518 12.9119980679
5.3359426594 4.1150165423 -10.2653973893
-1.5658591689 -0.5880789104 3.8318658399
5.6526657573 6.9254407499 -12.1993222901
4.9183275306 9.4721368349 -7.1733903764
-6.1415482026 8.8103663048 8.2631038758
-3.1893678218 16.4220402582 3.7091120135
-16.0497204127 8.5088940328 8.4753290043
11.253837914 -0.2184994963 -0.926347449
-27.6326627162 -4.3574640545 -1.1278970685
11.5993684282 11.4082237423 -13.1691210419
-8.8372562233 -12.7909461474 -10.5803842909
17.2410401361 -19.4038453792 29.8987577094
-27.7241886296 -6.2701719264 1.9953735599
17.8390419821 -8.5700720275 3.8235847302
18.5020231751 8.4306845718 7.4488044521
5.9389129481 -1.7140317069 15.8147006921
4.3779360781 -2.4713360139 4.8824901291
-5.0028454766 -17.943183246 7.1104463368
4.5220094602 8.670478322 7.0338905968
-25.8421966931 4.925803215 3.3645565892
0.683176992 15.0337857607 18.6903266172
5.759118364 -17.6864136035 0.6802675333
-0.6362130688 16.1587042432 -12.7634632474
6.4675929318 4.5870152761 -6.6054060971
-2.6367460084 14.2231169718 14.4107440499
-18.2321599032 2.1807208926 4.3337630935
15.4278156832 -10.9017408822 4.1022593423
-34.5543032918 -13.80817425 -13.5625786102
-1.8541342898 14.6039677943 4.7352139403
10.3062346724 -19.4948184117 21.4157187058
9.5352964751 4.347465738 -8.6672629194
2.9412448934 23.8411447654 9.5924514228
-10.6500103471 -8.5328262833 12.3042933694
-5.0629406573 6.28768 -5.0284209014
9.825312746 12.228783713 -2.9954439581
-30.4944982757 15.3831496296 8.9118193996
-16.8973040223 5.0584295603 6.8712764646
-16.9460951814 9.6537942687 -15.8053601005
-16.141441288 -14.7568524356 -5.2901289112
0.4934639144 -10.9429333673 -11.7283683957
3.7692725043 -8.3845228252 7.8896969908
-2.532958775 -2.2749770648 -0.3517426316
11.3299717951 8.4350054364 -12.0578188607
12.6466555718 -9.2340214886 -11.8758024737
-13.1232645578 1.2800921718 -0.6760363324
9.090496162 14.2161197744 9.8414877514
-2.1923291423 4.5393216816 22.3327596677
4.6112438185 8.4534014432 -9.6270089925
8.2730370093 -4.8541357897 6.7288391567
-0.8056985001 -14.1055104807 8.1235042971
25.6817625087 -11.6866500666 9.4522700512
-4.2396769763 -8.2130274769 5.7812028687
6.9914730829 2.9403594429 -10.0434618267
-6.2267819889 -2.5150759103 -8.1865685433
19.0000026125 -7.2811342459 -14.4948902336
2.135921098 -10.442586254 4.3593050851
13.7153010133 -3.1124297904 2.4627106403
23.7582604164 -16.6876787431 -0.9951541648
11.832765898 6.0044531113 -21.348106373
-10.2868231 10.7116648775 -9.5648288915
-8.2575094784 17.9754353352 -5.0362414646
5.2029245113 23.0624922484 -24.8259705935
1.0984266073 11.2924413073 -9.3473230781
23.8080315365 -1.3824266733 -12.6004890953
6.5838949839 -5.1660168789 -9.014063119
-22.631651524 -16.3749765769 -0.8948615192
0.2947008243 0.2130550665 4.0037022787
-11.2751723982 -21.9117425268 -11.7333495444
-11.9827176325 -8.2186288109 15.9605837437
-11.9718817153 -0.6709134841 -5.0782932239
0.2613276437 -13.3450308294 -3.795837039
-0.7357914631 -10.4129906698 1.3813032198
21.3552449611 6.1290100785 8.8236898316
19.252434498 -3.4746507633 15.8557909283
18.0945256636 4.6293948803 -25.6408347881
-9.2198615907 4.4154559031 -1.2977198078
19.6339108223 -4.3346019439 8.3183608146
7.8342296692 10.29954856 -0.2228928273
-9.5625823025 5.9887590951 19.4144951192
12.5846622672 15.9986244669 -22.8475323392
6.4725519981 -14.6004419196 -18.9947346921
12.2973838488 -5.292553306 -22.4637951585
1.9352334905 -2.4940630474 -19.3375491184
-14.7926455434 -1.6966979564 23.0680503399
-7.3516424851 -13.2173839146 19.6618130394
15.9050662028 13.57794036 22.030658655
-9.4146358623 4.295735078 20.2502229184
0.1646940827 -2.9146600039 -11.483801812
-16.4078393619 1.500128817 -0.8712774732
9.0938300643 -18.0645356237 12.724403304
18.4974398085 -4.4780162684 1.6622870752
16.4530662198 -10.1058196994 -2.5855405839
-0.3101149676 2.1049096512 -8.6989762913
21.9063361391 -1.1868094835 7.3030637843
14.3737012797 15.2203356786 30.0088741793
-4.1505752226 8.353457695 -8.2209860237
-0.0514745497 -13.4319626696 7.6176498857
-2.4219723527 22.6533585443 -6.7961244041
-0.9477748788 6.2084281366 -16.3810749052
-8.5316531982 -14.6896642104 15.5280949678
18.1048869863 9.1969666887 -7.7229535214
-0.1872473842 -6.4718048053 8.4690139105
-3.3840389858 -1.3477009352 -12.4932764412
-4.5607952316 7.3537890492 -9.6213839423
-9.6462439892 9.8413103666 -3.2415282184
6.2286773655 -0.2041864518 -1.2288413058
11.2239456779 24.0037473197 -7.6255425177
-11.4892691532 0.2532143194 -2.452997239
-0.9577882762 -8.6169447375 -5.2884016633
15.2693006527 -13.8275924961 -15.3209439016
-7.3277396694 -21.3300783614 3.4662035307
8.4152575807 12.7057885269 2.7072498414
8.9726863061 -17.916181781 -15.9766827138
20.0830094129 9.5150466421 -0.6033663756
-14.9483510011 -1.5322862635 -7.3620829617
-6.5467545833 -3.7164145674 -7.1333895852
-1.0329725267 6.1265386021 -4.1179788167
-5.3433195609 3.9230182426 -10.6875662846
2.1507058713 25.1791482649 11.4113619655
-5.1019847347 -8.0894319476 -20.6184807545
8.2351215741 -2.8085362862 -15.136966205
7.8961694336 -7.7204800524 11.2929391742
-25.3527915739 10.1574072748 10.7081355867
18.9625295306 -1.9133144188 -5.4424619807
7.909050889 5.2079825907 -16.4222859003
5.2170244572 1.1786961876 6.2802198274
-9.7442483152 0.5880758741 -15.790138163
1.9002607882 9.523840701 -14.9355060497
-5.5362375187 1.4311425173 -11.4008008763
13.877013652 6.2900150581 -7.0580078195
-23.306362023 6.8990850346 -3.0332006501
-7.0652095472 3.922340788 -3.2879053318
-0.5090403965 14.2162745277 23.3088455592
-10.0632484957 2.7997284612 1.9985025139
-16.9516661934 -0.8218669553 -4.9481494579
7.5950885063 -11.6931614783 10.3463261397
-14.6401117974 13.4594699493 -9.7868012602
-0.2413985844 13.985166402 4.1970901029
14.9220013727 8.8581917782 13.6374508746
9.7348792406 12.9914632981 14.008372434
13.2141214481 -9.89767996 3.9975276733
-4.0353925407 15.2696010157 2.3732283435
-19.778174815 10.1664304227 3.2248549168
5.9462155617 20.6158383937 10.5340976279
-25.6042229003 6.9955704863 9.4181933496
0.7108572182 -10.6484830962 -13.3514975927
2.2458568549 -3.1686502135 11.9881427589
17.9161800395 12.6061546821 -2.1013649125
-8.2145880825 12.4669675752 -16.2336112506
34.0571215874 -5.8698815138 5.2965636821
-15.804201338 -15.1178940815 7.2759950552
-9.3452510698 3.4092931298 6.2495314578
-23.7069913256 6.9167593434 2.772940056
-0.3595530504 21.2925441104 -5.2140321114
6.420677671 -3.8941799694 -0.72936813
-5.478052727 -4.2023558535 -3.3284862867
-5.4004060891 -8.9570698721 10.4672832164
-0.9719508043 19.6537425946 21.0567435607
-5.6227390917 -17.5241275068 -8.6835282478
13.1234771817 14.2430215921 14.8316055163
-9.9226109827 -2.3953411098 -5.1858943479
12.5558010297 4.734246999 13.6875416252
5.3167099023 0.688217659 -7.7793641878
-19.5205217293 6.2770280915 2.0296887259
-7.2062415237 -9.9188876677 -25.2171702005
-17.3707586874 18.7548127507 -27.969941108
10.8121362955 -8.0728807381 -10.7813214023
-9.3522712419 22.0147723402 -17.1042522476
-6.9327873538 -1.2795389044 -14.5066521022
-8.4330988477 -9.7942434257 2.4912791704
8.3930102466 16.3685030871 -22.0503873175
23.1530294541 -21.9781016764 15.7522246965
10.6177607508 23.1228276625 3.9092187704
-12.2440567069 -0.9889340209 13.9861727678
-3.9599177403 -11.3996289468 -5.8711331155
1.6159462654 0.4625665995 -14.2767451536
11.7763033038 6.1698156184 3.1601233805
-1.2906036061 -3.3310980013 7.9487504726
5.7872591004 6.9482976047 2.6538854853
9.4281608929 -8.0498794728 -16.5975551902
-17.9944519414 3.2391764217 -13.6881071536
-0.540932875 10.49717291 -12.3084318945
11.1101651045 -17.2829379753 30.2109978776
-0.4635848476 -5.73156207 -6.8581712595
8.6175354402 7.0985026816 19.0105225353
-5.2321786005 -8.528058741 -28.0903557233
21.9823404759 2.5374223026 -14.2485528104
9.4802874777 5.3450071477 -2.0232006438
-12.3196251126 8.7718338311 -7.709947882
4.5534169116 5.4153502927 13.6380185216
-1.5235262753 -5.1256224491 1.0014090756
-8.6847885449 -1.0690478652 -7.7115652191
-4.5097761745 -20.9614618936 -3.772858873
7.9040554652 -15.8785022445 16.4704085314
-7.5731072658 6.2526397956 -7.3299817372
-12.3628147539 -8.7505109207 8.2265124013
-1.5356033048 -0.3605235209 -1.2185695981
4.4000431277 13.3650919383 4.7019798435
-11.8604201548 -16.1323321605 4.6799069573
-8.2307144024 -1.0803694552 -0.4142024927
-5.3415870468 -2.4408540568 -7.1665403857
-4.015567682 -9.5224431157 11.2953916695
-4.9536137724 11.9719927413 -2.5693849559
1.4666551396 4.6047598659 -6.0412364792
-1.9435845382 30.9386623342 0.2572876282
9.2356444276 -8.4635657814 16.3175565705
-5.9182874578 -1.9556843359 11.767445202
32.0992725908 -18.5008681693 -13.0102365812
-4.8745152775 -13.2877242317 -10.0684639578
-12.4740200716 4.3626644981 3.4664392469
12.3600626331 -23.9502895388 -7.2170651171
24.0995018597 -12.90559397 -7.1514919698
-7.6585482444 11.8343551444 2.74222847
-19.7195861282 5.6077405661 7.0214607584
8.9455825685 3.3152539252 -0.7301243051
-0.795442605 2.1016802478 -15.8954084298
15.0064283949 10.9914903136 -10.7808629805
-0.373440912 -9.7161337713 -12.9926036161
16.0853697294 10.7188909954 -6.7206952656
-5.676821156 6.8055576487 -6.8244583287
-17.4796690139 0.3198153213 -5.6925780456
15.8347356201 -5.3452312557 9.8734282755
-10.8002445921 8.0588467899 -10.0462583616
-1.9020797459 -12.6311288576 -1.6749158885
4.1032630242 -20.8520455886 -8.5260206704
-2.3656433238 10.6234140876 15.1707711461
-5.2015814552 -19.4676110857 2.4427539111
-19.5368481877 -6.4946411387 1.9595344374
-9.2313954898 -6.7059056164 -13.3412011633
-6.6941609096 -11.6712940383 20.3913880898
-1.990651292 11.4164439154 -7.9869013261
0.0291547304 -6.9565507372 2.8766121077
9.0821614562 -6.8670006236 -11.0861615688
0.6021040118 -0.1891274709 -1.2182495754
1.4795740126 -13.6844242482 -0.6058728761
6.0074250478 -5.0438222811 13.771601295
22.6760810539 1.6305439382 11.9062121946
1.0529654891 -17.9953915098 -0.6596373994
10.7308340914 -4.6927644423 -24.1222561029
-5.1787211843 -5.914138086 5.2183535944
-30.6161290453 9.9421418045 1.7821299394
6.0136163793 -7.1481801135 10.6591270426
-11.501146846 5.0038779185 -1.0580176012
1.1985138834 -7.0781214554 -6.0686447413
-0.418807461 -13.9016054796 -8.761532092
-19.7028805318 -9.6018714106 -5.5194456566
-7.2778138657 -5.9069790113 -0.7816108212
-22.9973377141 5.1785410379 -9.1873517099
0.8853690015 -30.2953998463 3.9726321873
5.8852947216 1.6863807943 -4.6944829237
2.5555419859 -3.6605308804 5.4136071309
12.5537617589 -4.7023403352 -9.2450922662
6.8319676865 -7.2240584603 -4.1372403252
22.6008313218 7.467909039 10.9759537161
4.9045969162 -0.1369172543 -25.6508036094
-2.4943125259 9.4398908442 -1.870868569
-1.5940050422 -17.7960055488 -9.66784423
1.9252579846 -10.824373782 21.4472011855
-21.1163715571 -19.3356265318 8.6927247156
10.6292481361 -8.2016240837 -14.9362680019
27.0638907133 19.3958082657 0.1680266565
-1.5657573193 -2.8415834401 -5.6986996949
3.9962727519 1.6274244351 -8.0629043233
-7.1663291661 -13.2189114396 25.2525299217
-11.7778791032 -0.0452807083 4.5136613099
-32.2697232407 -9.6294017836 -7.652177855
6.4618321455 6.4563466592 0.0302557725
10.8720945478 13.1815352535 -1.0769994351
-18.3529035261 -1.8993005365 6.9110870993
-10.0433238206 11.9162411546 -1.9301666824
-12.0567042843 -2.5666111006 23.1069523098
-1.9083396233 -4.5223377373 4.8116189398
-14.3025572116 7.4947793717 4.2955248168
19.5089998152 0.8736855633 -16.640767913
-0.3205434748 2.2417067267 11.8368731922
-4.1624215879 0.6863492391 7.5174260115
-1.2329904551 14.0879700263 -1.2139709419
6.9972221731 19.4345815365 -13.5687201207
7.2156041295 6.8661016837 -10.3029706915
-2.6637708974 0.0509925113 -21.8772666037
-5.4943839636 -5.7375706244 -15.8871843549
6.1759219746 8.4745749036 6.0020421597
-3.1893063461 -14.3618987873 -12.4146581612
1.5671665424 -2.275605533 -5.5962631467
5.6003592503 -6.9598844695 12.769536253
-4.8345586682 21.7238032736 4.0475099499
0.8390899973 -2.0737155867 -8.4421469089
-12.4526496683 -5.4264037613 6.9182139375
14.8807424666 7.927917978 1.1785731942
2.9922236488 7.2110344264 -34.3625876843
-15.2195619473 -6.9321693893 -35.0941853181
0.2825288363 2.4603704076 -8.3675771257
17.8670929783 -2.1437067213 -10.2036985917
-3.0984669199 -7.7974997923 -0.7837084667
3.8299650971 -13.9920650554 4.3428717486
8.5501044746 7.4338080341 7.3093035081
-3.0398694864 2.6109407927 5.9812075906
-14.1869245378 1.8765841124 9.1336195324
8.4476776919 -5.7712311882 9.6617360902
16.7934318029 10.692088858 -5.7452422032
-15.7745881699 -2.3291459029 -11.6455962624
21.7445320485 2.6871637236 -15.1625582666
19.8086169043 -7.9786128715 -16.1224536854
7.0009555428 -16.1677213173 0.5502160537
7.7493943203 4.7900286043 -6.7838061421
-2.5186675128 -1.9753451186 -3.8399872641
-10.386476177 -0.662154599 8.0599309324
-14.728797363 -22.6316536683 -1.9523549877
7.6781135705 -0.5550932602 1.7073152484
5.416783229 -16.5332699937 3.299832067
-5.4331995562 -7.5291303055 -7.6649379062
8.2325245076 -0.2639034897 -9.2257306222
14.1814439962 1.202235249 12.4683157482
-14.7768696877 2.8521315785 18.0053862168
8.5275857887 -19.1613464416 15.61566486
11.353816034 7.9999423278 -27.8966219773
-18.1943325852 8.4621214999 20.7964034575
-6.7878116515 16.6279973317 30.6923356519
-6.0178511845 27.0830380803 -0.4293659954
-6.1092283958 2.7430761981 2.5205904965
-2.8611074412 -1.8735669687 11.8828853412
-25.1147219002 -0.6379299394 -8.4477352154
9.9528896368 10.6054015795 -2.4922908876
-8.1258032618 -9.8058082674 -22.9720834846
-7.3293476492 -25.0147528282 4.9877649482
13.5451246141 11.8979731323 -8.4919436808
-14.1517695031 -13.4523105527 0.9003096355
18.8678686222 0.8069254609 -15.6851893897
12.595990232 4.0302717179 21.7792104347
3.8521193781 0.844653083 22.6781706121
10.3513655685 -4.6769613251 -0.7266417067
-2.3985390611 -4.9279530602 -6.657117637
-0.357819167 17.2137604485 -8.5722259863
4.4221475244 14.3888297653 -0.8414536076
0.552512078 -11.5711181394 20.3859914769
-2.6969244651 11.6992010119 0.5103464062
-0.3367542442 8.0284801094 -3.6438352126
18.0765993568 18.1666137334 -6.5875807374
16.590124904 -9.3495592311 4.9456386054
3.6998692172 18.2324462074 2.8739089482
14.1793154006 -10.5617791465 -11.2125984224
6.5477369236 3.1492965408 -10.4857622832
-20.3698420225 3.4315700305 -19.9783227266
-10.9472180337 -22.5777859536 9.2929222733
6.4591282381 2.902268254 8.6505005159
-9.8467035214 -7.9082168769 -15.4353745518
-2.888852622 -0.2573449323 -7.869175186
-9.8456096737 -8.0405737141 -17.6771880233
-10.5396008969 -4.3300590169 9.9764981781
7.3585895211 -8.7688870547 -1.0835317825
-10.0249817015 -5.2992070007 0.2627329161
9.1638100493 4.3714094337 30.0743596145
4.7530577404 -15.7338359293 -8.095103642
-7.5674400476 -2.2015319536 24.6444873665
6.0362642408 0.5330970132 -11.9057044182
11.2271015382 15.8391295252 -5.55158802
10.5864558874 0.6505510973 0.7286410047
-9.75165233 -1.8703332422 0.6196022885
-12.0069344866 -0.5525923054 -2.9614747067
2.6213371396 4.9452298849 -0.4239556797
1.9079664511 -7.1926965793 0.9907774084
-9.9159251613 -1.453941512 23.6761244886
-20.198248756 4.427727345 2.2134959776
0.6035732248 -34.4631774363 6.5331073053
22.639141741 -5.931089934 18.7791702893
1.9832702867 3.2249331806 9.232175438
-10.0968991541 -0.7583114648 23.2081892
-20.0287711752 18.1151213934 8.2917617792
-7.8022987 -12.5671869771 -5.1936188063
12.6553529465 2.8768720258 11.105864921
35.9579059615 -1.3738837669 -1.5126452907
-0.8811307603 -2.2051348445 17.6748481876
0.5949533627 3.49101079 -15.0205912456
4.2804220804 6.6989268471 4.436820649
1.2927095319 -5.3741080375 2.8744349618
24.4506048137 2.6250737285 -21.1688137841
-10.1867287332 4.7672560242 -18.1131154869
-4.6327396052 -6.8253012255 2.7237515278
6.1517659335 -1.4924273488 -2.8159899902
4.2945747754 -8.5956684025 18.2999606922
-5.1699139986 -5.559720507 -11.150163015
15.4022323925 2.0738910202 -9.3932287649
18.2580695199 -14.4159372035 13.1376062135
1.3118381564 27.6935835852 -8.6697414912
-4.3058182364 -0.4603403382 -8.4290593982
-6.2473229342 -9.5992820587 3.2198402606
-4.073622109 10.3722974373 5.400420822
5.4526493188 -6.7569339254 1.5899647905
6.1823736498 -6.8136570838 6.4081571224
20.6108948007 -5.4558251727 -8.699820816
11.7257845078 -1.2840382088 12.3770686285
8.5741316364 -1.858141953 0.2029704131
-7.6488375035 0.1273910502 -16.6892784065
-8.587901572 5.0718903761 -18.72948852
-9.0339153392 -1.5642678953 0.3530197681
-1.6369806636 -3.5115213783 5.8942565687
8.3840895815 -3.1583126569 -17.4707261671
-5.3615379799 17.6394194786 2.9148399903
10.8131082412 -7.8042721074 -10.4580705674
30.8124922675 -9.5462526282 -9.1019272067
-27.887487827 8.2498499363 -10.5026423212
8.4734381761 -4.8264974156 -0.4590654828
1.7965175714 13.0597917014 20.8103685972
10.3827111495 -7.3372947027 -6.6957429253
13.7858033971 -19.0695496028 -1.5274249865
-4.725620584 8.8132043832 -0.0264079241
-18.9705526454 1.550391406 3.2448896767
-3.6236853015 6.7079057321 -13.149363027
-13.8618342431 -2.8401557273 -33.4463213511
-5.2732962595 9.4496653637 -11.9383816934
-9.7027823832 3.1839365778 0.6317887846
4.5103757193 8.7942663545 -10.1393487104
28.4917525117 6.0362969794 -11.0955982149
-0.6559080874 8.0768834972 10.7307099162
-0.3311675298 -12.985802707 -19.0231902067
-11.9597199676 3.906014099 7.13042646
6.4010648333 -3.4234348146 -12.4766709664
2.2738265917 5.5740766098 -13.3065391115
4.0864301717 13.1826273661 -14.4113649884
-5.9363288593 19.0664205578 -4.6721500563
5.5255147024 -4.5838710025 -14.603410704
-2.804754728 -7.7317848877 -0.5787260129
12.5286919277 5.3672103846 4.3213112321
-2.3943463923 -22.3890287773 21.1265878504
-1.1960425004 -2.9801647697 12.9015160912
-6.8064386415 14.1600161767 -0.6364328024
-7.3893281507 12.0621851872 -13.5187909691
8.5670438455 6.1993011338 9.7611534151
16.7520366289 5.4090766796 -7.0864999443
7.3769436183 -18.143360245 13.0992070991
10.4055415107 -3.4422191373 8.8018719937
-3.4423153955 3.6908093396 15.2610169087
19.3207765506 12.0732931259 -22.2863967602
8.9329857774 -8.2186684489 1.2163840425
-0.5214409619 8.6053280429 -14.4825251383
17.6230161143 4.2883481238 14.4344871507
21.0328704062 14.2818831453 12.96793245
-12.2002323867 -17.8888885448 13.0931794404
-3.9867338728 6.3790829124 0.795313737
5.5270973807 -4.2656083033 -4.2858770891
4.1709932083 -2.6491381675 1.146320305
23.0941479397 -15.2238634149 23.5770012574
8.1632761437 -8.2310797355 0.1890716423
9.7059758348 16.2888869607 -16.2744528964
-4.5158059212 1.3126044983 0.1781761558
5.7576929633 -6.795334824 16.7922973287
-3.4841177774 -1.7125779162 22.9278557937
9.9148023118 14.7442205756 -11.774449385
-5.1645034814 3.3642566213 -4.995292413
-0.3947441901 15.7029120717 11.3626157654
2.2035487425 -3.4253358169 9.4824604295
1.8445529496 2.3802684738 -4.7030395959
-4.2263761852 7.070843576 -14.3508562912
-4.4030460664 -15.5645795135 2.3402674458
1.124403576 1.9824656127 23.6416917892
-0.5622291731 3.2604714889 -4.4321891726
13.7846494742 -0.0953923237 14.4129803268
-3.2316433878 -14.0862395736 15.677232719
24.3800880587 -3.5010996876 2.019198877
-5.4281944509 -3.5264915957 0.9835527128
-17.8579623041 -2.1266200746 20.2387976694
4.1893582345 2.2005176381 -1.2456486093
0.093419109 -4.4556627255 14.3975749052
9.4067814192 -1.739154902 -16.5949787107
-23.4761173649 1.7421690379 -32.994634468
-0.4030908162 -6.3957556577 2.9043627133
-14.1424437451 4.4765565832 -3.59323316
-16.9701583708 -0.3980625213 6.2087417205
-3.9198197604 18.5609195757 9.2615907948
6.2919602451 -3.3422514492 5.495966622
-8.6890309303 15.1350969243 -17.7000248802
-13.8582360322 -6.8555008214 10.8383892873
13.9860819728 -4.8331193346 -19.6800768143
9.2694979662 -11.7061050773 2.9596144816
18.1362473352 18.2995939307 -16.2380058211
-12.491286853 -22.3790754549 -11.7648173937
-7.2880668419 18.9592862016 -5.827809915
6.6965889294 -15.4281400598 25.5351836811
10.1775801561 11.0084830706 -1.7024529454
-10.8105712688 8.2575019548 -1.9808400344
5.3029392 1.0710979736 21.8357545049
-0.9412488922 9.5549963172 9.5587063166
-6.8075841637 8.6215870928 -17.0644434722
2.2619816531 5.9858158929 8.4201045279
11.263590271 -13.4917832806 -17.4244869057
-6.6724214327 10.1787921846 4.2229824544
6.631890933 -12.7524106027 13.9982198981
-3.2137205739 22.8969109631 -2.0002681547
4.018433238 -0.3966220931 -7.7721747374
1.2855299977 -4.8894806909 28.5421544097
-9.3645997909 -2.0759486161 4.0094479989
-11.2932335104 13.6378696627 -5.6240136239
-3.0475535617 -7.1076338645 -21.2145368322
-9.9792177744 -25.2266107783 -4.805839334
-14.5391859877 3.7580620194 2.9604506376
-13.8494922949 19.4008536405 -8.7583905721
-11.5279442298 -9.1237211833 13.2493532448
20.8396726795 -3.1616563365 4.5367931117
3.0768132769 -12.5617169315 0.3706940725
6.9587491254 20.8650252025 -4.7285253895
-16.9401382944 -17.483209311 -15.8466818391
-20.9034462061 6.6297803613 -13.3281979285
-15.7882708951 13.0097515844 7.1602084981
-7.8637194467 4.6506865709 -4.5379978126
0.8604867344 -0.9648178978 -16.1561161076
4.6276444678 -8.3545511279 16.896393879
-5.4754365022 -13.7811919123 17.919442899
3.450625475 10.0754407045 2.4938293215
-20.469936789 8.2830078957 3.4734345778
12.9634412732 9.9640031592 -8.8184196868
-3.7628828316 -2.8925106579 -33.5485296653
6.7649211757 2.7189245668 8.3897820505
5.6205797006 11.2077095461 1.9901389147
23.8229598142 -7.0620565754 13.5752158092
-20.1753602053 -4.3593576881 -18.4684805735
0.186884671 -19.7908045241 1.2553593886
7.6269880509 -3.3137585071 -22.2918357277
15.0721155024 -3.2561267203 -6.0891271659
-11.0975312059 6.4726321703 -2.7914107811
20.3535153749 7.7323785287 -16.7110890571
1.4238833572 14.6939458697 -3.7846721357
17.9965365139 8.6070586216 5.8124767488
4.4830471974 -17.6437924686 4.3182761064
27.1555659979 1.5705010771 8.9072867944
-9.8082690834 -4.0909690371 18.299495114
-32.2927219327 4.2797975698 -21.3500802314
-12.7744183552 7.2194242496 3.9520455395
-5.1408515425 11.886534613 11.7925779288
-12.7049338885 -15.1817627678 8.3900340927
2.026119215 1.1140408816 1.076575022
-7.8667444137 -5.7024007438 -6.8636379081
0.4520748839 6.16389608 -23.2931755516
-0.547438299 -14.8429285964 -4.9577463504
-14.8474685491 -10.4822437204 2.8492022794
1.1114589083 -1.5363839865 23.1700143438
10.2722355127 8.7621626831 4.7128123122
8.3866455459 5.6367546775 7.9114602071
-28.1252246508 -9.9775701123 -5.7549927715
-5.662965574 20.5734204576 19.7358760512
-11.2583692915 12.7692652281 5.4039768672
7.8710939972 -13.4477263375 27.4349822812
-10.5482375328 -12.8347655858 -23.4528874443
-3.0118895747 -9.4072337065 9.6486354281
7.2554560693 -16.7528760646 8.3361978879
-18.9207818173 6.1088690373 -11.6815733673
-6.3190359255 -12.1316875643 -12.1133939117
-5.9516113867 0.7830761445 4.2857342135
0.1583018923 -6.043600609 -22.22132126
-1.2219224277 -14.9988665013 0.3431736524
0.7608888444 -0.656525175 2.9794005093
6.2948719624 -19.2452017784 -5.5797566357
27.806480909 -18.8004789005 18.7838550431
13.6774007706 3.7563503605 -11.6786545876
-5.25556408 10.6164388039 21.6207929897
-18.9754458608 -12.9271731695 17.5616621224
6.6331796443 12.4975738902 -10.8081840354
-2.9633112117 8.1221797551 5.0990356133
-8.5404509152 6.1105780801 -7.6307591
9.6437358232 9.5190669022 -0.6086192796
3.7684862062 -2.0203440046 11.3311895275
24.4348252189 -1.8576911544 11.3302277665
-5.3486267112 14.2105010773 1.9825764607
-8.1837060894 6.7113503097 1.1969114288
-17.7642834866 -10.4021906677 -6.7002866156
-12.8285221473 0.5570780815 -10.7334220231
-12.2979145539 -14.6704627092 -5.1540948238
19.3275017128 1.5313980839 9.1491408026
-15.428493819 -5.3422475097 -10.0642128389
-10.9482175069 -13.3304876216 -16.2686412028
5.6515382797 -12.9433724074 -18.8481534951
3.9012451413 1.1066433296 -20.7848520178
-6.7719062238 -12.3980423474 15.0114002009
-18.8264407134 -14.3890263441 7.6561599158
8.7880662164 0.2063162778 3.9413795707
9.3470294 -19.0467523809 -5.2289587568
17.0648169154 8.6937246442 -14.0008731122
30.4007086896 -8.0115559376 7.6799589805
-3.669570194 -12.2618221698 4.8254683817
-7.7610871476 -4.7816093935 -7.2645744916
7.7927765556 0.9925785008 7.3375040828
13.2509993936 -4.7229578773 6.2130209584
5.039505993 -36.6572527583 -1.4916630055
-9.4185128161 17.0718646534 -10.2130737029
-10.5004243005 -6.8086369709 -3.736898906
1.7673000812 -4.3723456736 -4.733519616
6.1035850013 2.4205626685 8.3759809505
21.5479215692 20.1222744462 29.0030051647
-17.3086532216 -33.009611709 -10.5214539764
-10.9905133102 -8.8314365897 7.3841836324
20.5013134837 17.8292539813 12.6720633301
9.5654211909 0.8581964386 11.5991028487
-12.530458837 -1.6770122179 16.0535632617
-23.1314349596 -7.8066433959 14.1369384438
23.3408071562 -9.5941021002 -5.7222691934
-15.0977687262 -13.9284708146 -0.2231249633
0.3253618188 13.1704257084 -6.0068786096
-3.7728165583 -12.1669294055 11.6480057363
-26.3916319316 -8.0687247711 -18.5973133264
-3.2650383043 5.4154392059 -2.3104820676
-4.2145365738 0.1918406101 6.0220197124
-1.0254506832 12.4860346882 0.6411213766
-19.3581009527 -15.4605996551 -7.6969189593
-11.2133779174 -7.4294513459 14.6822663617
-0.2755952623 -12.3282484131 30.195827992
-12.6806034176 2.780556473 13.2140120253
-10.7480348254 -0.2723999758 7.982575948
4.9768978178 -4.9342959215 -14.5512813852
16.3954466827 17.4440050201 19.6527371229
-3.5675101175 0.9756312442 5.4353865236
-3.8287527255 -7.2078552491 -5.7331927141
-10.0458707296 12.2723402476 -7.0236812878
-12.2012370196 -23.8788153079 2.8373303895
31.6354139062 -3.8365911604 11.0226190802
-6.4137273005 14.3904621269 9.8774854856
3.9516543105 -14.275479917 -5.3147652014
-14.9896770183 1.7771296389 -7.5933759675
-6.5966376541 7.1185613301 5.4543215221
10.3107885617 -1.7828774298 12.3042310448
-13.1437443087 7.5261779609 -5.854743163
14.1635698767 -19.7695478139 4.5543032592
7.1512660521 1.5083157193 -14.6608252826
14.1248535696 6.1780928976 23.7607889731
1.1464404808 -0.4481624148 23.8501604468
4.7368616201 1.4715617191 12.426371944
-6.9263054636 -5.5523473386 12.873922762
-12.0061985886 -4.0107980177 9.3746784599
0.6262699413 0.0908194652 -12.6531390612
10.0814282228 -10.4682223406 0.1089423285
18.1878315231 5.5336162343 -13.3959163691
4.9793692007 4.9565101094 -6.268570841
-6.4740749266 -12.1573541928 -5.071670548
-3.0457622459 4.9431031925 24.8664148833
0.6986528456 -12.2024161902 10.6182505541
8.9464654755 -13.3580536399 -13.0702869401
5.7827404604 13.6464263851 -7.8261471736
8.3462473485 -9.8826583483 -11.65515179
9.7113235002 19.6044538824 11.03515187
6.9114008324 2.3867870123 6.0571462327
-11.6461313129 5.4908109466 7.3424457252
-9.1572441325 -1.5348485738 -0.4428039852
7.8759390349 5.5828910203 8.0365746344
5.2216225219 -12.1822084964 -2.3183091034
11.0047331003 -0.8436547942 3.2352576498
-2.1116858417 -3.247090686 -11.1930386649
-1.9623694057 -18.5491310051 14.1232106744
-10.0145239072 6.2969875459 -1.5666760932
1.7508707036 16.6719470102 15.1018944206
10.6728463151 6.3289135335 -1.4985089773
12.8718311529 -5.2903774046 -18.6756016472
-1.5578830017 -0.9926584246 -5.1879946769
0.5233303461 -3.3040298328 2.2714939721
-9.9938173527 3.632062699 -1.533470344
-8.6679494619 -1.8832473915 -11.8973264647
14.0675968974 8.1141595791 -8.2482282814
22.4877324519 1.1986820887 -17.1995680729
-14.4935496186 7.6220453215 1.3741292925
0.711093895 10.3499400359 1.2554476121
13.5787974763 -28.4662532761 9.2610199628
7.1642922599 1.9551657444 -9.2374229488
-7.7439041001 8.2924167454 -6.6982765313
-3.9450046296 -6.5073278364 9.887090375
-17.6617437682 10.9151665284 27.4257434405
-2.4682225953 -15.4925761019 29.5858936686
-3.0358987394 6.3417657214 7.9251284661
5.0449173515 6.2583558268 -6.6563815751
-0.6701909599 -18.7341403381 1.0999993933
7.7712911076 9.6135502934 16.2445580352
-19.4763683059 6.6056986449 0.3952018742
33.5074869697 -13.635614546 1.7066946653
2.8550509643 3.1061713871 1.3238103476
-3.0923597413 -21.8643347233 -13.7422688533
-4.6254479253 -17.5607412977 -10.5133922038
7.5956235055 5.8431929173 -3.5397450367
-19.7865648942 -2.6767115025 4.4838691444
-27.3941141204 6.4855999784 -13.9155332092
-10.6915204052 -5.9081390432 0.2489593961
-4.8536494182 19.2640973738 30.4249175664
-18.5930727993 10.5693074689 -11.0719417771
-13.9861268407 -1.1268033988 -22.0548841072
-0.1590439301 -1.9821409211 -6.8908102761
-2.6941037312 -8.0365200615 0.3241013091
13.8738866373 -22.3125020821 -7.2199207272
3.9309080885 5.415802922 -6.733088172
-11.7411623715 -3.2213106055 -16.760168115
-12.1904824755 5.3120003324 -14.4644459427
11.6298725935 -3.3034886185 12.5149687505
9.1337442117 -5.0376413428 1.5260334874
-11.0664722778 -18.2858637431 5.4141628026
-8.0193661181 33.9205215331 1.2888065858
1.0439768041 -7.9590288429 -6.3672928358
14.4129422221 12.5669590829 2.0560056917
-9.7561500998 -2.5681990624 -17.261581419
-18.9855958641 12.6144499364 -8.3098709264
3.67170889 0.6095859918 -21.8081242984
-8.6027236142 4.6591706265 -2.8936025201
6.3989399165 9.3398190692 -14.7005974409
0.3869577051 -13.9046783362 11.1736776924
13.0534765105 -3.953561992 -0.2679129162
8.4328963399 2.6540601913 2.1203092436
-11.5486374877 4.7635890186 -11.933145011
-15.4532005506 10.8551643785 -0.8498794003
7.6992688028 17.2394591032 9.6553744979
4.7697444654 -0.0682814469 -16.1908588021
0.9840526896 -6.8602515498 8.2127571749
-1.7553282863 1.2117930659 13.7542727624
13.057311217 20.7933171346 -16.3256308139
-18.0461810078 15.0988002792 -12.2299718816
4.4454316449 -4.0250213668 -4.0002033866
2.3024683977 13.8154685833 -10.3121804574
5.3341170596 -6.6337598266 14.6021761444
-7.9678477968 -0.864236174 -22.2627668071
-10.3653629931 -12.2233151109 -0.9990854044
12.8088045264 23.6992376029 6.5786124018
-0.154688967 7.586981869 4.6174518789
-3.786543223 5.2915671108 -1.7472627109
6.4045187405 12.7701480696 -25.4107546483
-6.7807647555 -13.4874906818 4.0650437619
-19.3803220046 -2.1557815282 3.6529680084
2.799629151 -8.528912254 3.2978706211
8.6231116234 9.3285590192 -3.3422581678
-2.3417945673 -3.5817607706 -4.6410910801
-1.6759154218 -14.7792805677 -20.9671590052
0.2653862678 10.4533855211 3.6351948451
4.0320186207 -10.0578280063 4.212974091
-5.2712568758 5.733806848 -10.4998699208
-9.2571108822 23.7807732445 -3.8953573406
-8.8308158787 6.4063549998 3.4399427325
-9.1892206013 9.2331256313 20.3971800685
4.6419029311 22.6375354334 -2.0030598148
21.6659640448 -2.8138767677 11.7703457866
19.8703977262 -8.8064313677 -19.5702274612
-11.3325376276 -18.115886714 -5.4215860194
-8.7133090309 -2.0740438936 -2.7971391211
-6.1932131008 3.9018330592 5.9950168339
-0.5147586091 1.4095113055 5.1928254959
-9.6567896164 17.7670792002 -12.9825318327
21.2866142674 0.8802036289 -4.1070434639
20.7948009593 -6.8340433371 0.880445532
-8.3497933174 -13.0501229129 -7.6986071787
14.2813285285 8.2099383876 -19.4722811365
-12.3691921322 0.17134443 6.7701426645
-1.8685924924 10.6042185665 11.0437134496
-18.2853927486 7.7296283541 -5.2075792497
17.3579621437 -22.9041478062 13.2102181225
-9.0304258612 9.3794557194 1.2454522465
-5.1936716898 -3.7295715701 2.6280789139
-6.4364543568 -4.7337771419 -19.3985970371
-19.9539255394 15.5761097031 8.5065723902
25.0833075723 -9.5122848314 19.7159511979
15.328907624 5.9317408006 7.0265343349
7.9608399057 4.4214473519 6.818519137
15.9794958819 13.2222839613 11.1003551678
20.2076017427 -2.584480035 14.4186130176
-9.6525198611 4.7568354047 24.2173005273
-3.2411452224 6.4458195178 -9.4714979899
3.4206933361 -7.4023448875 7.9223659328
6.9954648268 24.2235300644 4.1459243568
-19.1175441316 3.7506139715 3.9338996304
11.8324541817 19.161151257 -1.7923849864
14.2292495632 -4.16678711 25.4199723788
26.7308674486 2.7100704167 7.0052348528
28.3264276367 -7.8198734116 -21.8842295825
1.9747484928 -11.7570314243 -14.4762063689
-10.3583943783 -18.745905904 -7.2722891445
30.9400356341 1.8285990209 -4.8445164638
-9.1242970924 -7.4931218839 -8.3169327108
3.2438502972 8.3226660033 -4.584091171
4.6937282519 -18.0900714433 1.4511681472
7.4043127343 11.2311491909 4.4172647591
6.992683305 9.5376593103 -7.5490960466
-16.4874626259 -9.8581909775 -1.7965392552
11.0859479034 -4.2250268509 2.4318121649
1.0485067777 -9.502223965 -6.2075699594
17.3714444451 8.8288605563 0.4254517918
5.3472278668 11.985696623 20.0001765779
15.6333612991 25.9413720991 18.0094708939
-2.0157669884 1.2993467611 11.4020047545
-4.4953711194 -7.2795335136 -5.1488611428
-10.2134380145 -3.2753751991 20.3122426948
4.6080150372 7.4039012348 -5.2468756511
9.9703734313 -5.8964949196 3.4214954878
-8.0267142584 2.4502083602 -8.7707201577
0.1580941872 -1.8588554108 -4.2525807005
-3.8946184414 1.904141904 -1.3263258641
-0.7020813368 -5.8244973322 -21.1558064347
3.7472603916 -9.2751521381 3.8975434887
5.317825498 -18.547437048 -0.6070130141
-13.7242521145 8.3518448556 11.8852749677
1.7661549807 -15.9391528308 13.2023277242
16.4628860873 13.3988074125 7.2059587143
6.7635022537 0.8433523745 -10.3097179133
-0.4582343621 3.6889312547 14.9124843919
27.4101211736 -3.4685504527 -21.0656546186
-8.1627172728 31.355881134 6.6108374233
6.8851165605 3.7766041808 11.0339669084
3.7263881156 -6.9537279 -3.0712616588
-11.4048982161 6.7894620359 -25.2872257306
4.3707251884 30.641681339 7.6104893675
6.4987294706 0.7305348471 -28.4046389499
-1.5403360386 -25.4186697488 20.591963547
8.9425238463 -24.4214674358 -18.2716090715
12.1632782421 0.4000941531 17.7019112404
4.7920430144 -18.7910901448 22.0806101378
28.1367937108 -21.5447154863 -16.3285853481
11.4923900015 -5.1736290153 16.7953582617
2.7170902954 26.9944776128 4.7674100086
14.6941591298 -1.6586540421 -1.8808289771
-5.5101099601 0.9750329904 -8.1430555559
-3.3385611428 0.670372538 -2.8981581199
-9.5854525266 -8.5246269118 3.7154485349
5.4868184769 -6.5765332557 15.0867721533
23.9764394616 -8.5980512036 12.2957854037
-3.9146217039 -5.9689222626 -0.7206555902
9.5820485034 -6.4996481239 4.6701678893
-16.8557501964 8.2335827245 2.9209032817
0.1492904441 17.665464744 18.6755503687
12.4061764104 -11.1685228366 -2.6815795934
-19.6299832761 31.8230191697 21.7466468713
0.5470092669 0.7451641636 5.851639875
-5.6102499752 6.5992571962 16.3660896847
-14.4479258755 -5.2931731744 20.1826851978
-0.2738252104 -6.0664228177 2.7117176292
2.4781164196 4.32271172 1.4225388503
9.6870088608 -14.8122401831 -3.043633888
-10.4965937784 5.2402494909 -11.8866147099
-5.3803513609 6.1719629325 6.9708739099
8.3781797964 6.9557509105 21.0202584938
5.9307274006 -1.0703488668 0.8324125499
5.1930474847 6.9560503213 -12.0071429309
15.9415008049 -3.2845185804 -25.5804998124
-6.0258788281 -28.0501689467 -10.7760180981
0.8546809104 15.4390382987 -18.2809342098
15.6724112369 -14.485434357 -5.2769682191
20.6675837959 0.8224242326 12.6485832607
-5.7201565016 2.068988105 6.6484761368
2.800114118 -3.4469829899 0.1391928159
1.948113337 7.7161158875 -14.0634136041
-10.7609342583 -6.2181297284 22.5916861499
-4.0005064881 -9.2546309376 -7.8096661326
6.2251639697 8.5435003867 5.5588413884
3.0605086848 -4.743457006 -10.2973046854
12.2411847051 11.0638883358 9.8736844816
-7.0799768165 13.4826112933 9.3662658091
-9.1691572105 -10.2167043711 -2.8139023625
5.8470067685 -18.3684113625 13.3818916856
-13.2315496036 6.4625081257 18.7921458843
2.6110609428 19.94588646 -5.0072821688
-4.0442201564 -0.1689429799 1.0321587943
10.0031006092 2.1930795506 16.8105081349
-4.8215788604 4.1918672528 2.7157021013
-10.0986920407 11.7406947742 -10.2384986321
-4.5263771687 -3.113041759 -20.663714977
14.6588639004 -15.4597783274 8.0441293723
-16.8529075908 -9.2131601676 17.9051078545
-4.8011003626 -11.338582536 5.3664466138
-12.7720250925 -14.3302592263 -11.9488157736
15.4856548501 8.9111741771 13.406034578
-8.6401862943 21.3684036484 -7.6960736563
20.7326730883 4.0838778851 7.2706427348
23.6202918593 18.2033195516 1.8544154541
4.3518168704 17.4562304919 -9.4727798567
-14.7589281365 3.354804883 -5.5636328043
14.4507330178 5.9939951897 16.8919624554
-16.1044128417 -11.9604488343 -1.9469581154
2.440685383 -12.0820555174 -8.9585315296
11.5570955877 -13.4738122685 -3.178805941
10.7243475933 5.0292502056 -4.0685303892
1.2876877709 -8.7472182126 9.5496851829
-12.1589147943 0.8429212324 20.4630057149
-26.2863888363 -17.2386576297 4.1828754677
-1.8912570563 -13.3627749998 8.7166480808
21.6433200562 25.1571584002 11.9386279128
7.192392892 0.1715940089 13.0154326704
7.7311145842 3.855541139 -10.5124202912
-4.5295325536 2.9857478869 -10.9832140365
-19.0076941503 23.7468899212 -15.6035898786
1.8265337212 8.3432287355 -4.9703773485
8.3864718104 2.7433085143 10.4103098948
17.952142459 1.0373468929 13.8286389931
-0.3501972438 1.4033130857 2.5059135811
4.2358749958 4.2078144295 20.9486096202
6.2874327632 2.6780114779 -7.5116795985
-2.8351160997 -1.9491061873 0.1523459181
3.2187597094 14.6907203386 -8.334750609
-11.3129138839 -9.1719303493 8.2884674871
2.636449274 13.3344855681 -8.6497705995
5.6901661189 7.9258683803 14.7790823656
9.4173667504 8.608713017 -6.5045574305
13.2485128223 0.9631127619 13.341714525
0.8948256499 9.9424664296 -22.002464105
6.4377699158 -6.4446395699 -25.2384035316
-23.7430067113 11.5353336189 0.4636662446
-9.7235289441 12.0110933214 -15.696695819
-1.2473954894 18.6012942851 -4.7439782073
-23.7840127202 13.0514793167 -15.7963622967
8.7294441188 -13.8184831565 1.9292261648
10.4316920922 5.61966653 -21.1680204336
22.3395026075 -8.7577953443 10.6048568875
3.4002920212 -17.2605371209 3.1201848821
2.3680059775 -2.4701522088 17.902858595
5.4004574649 11.1813342014 -5.7344202178
2.3502355038 1.5296279638 -0.7223451018
9.0610089606 10.1740668782 -2.6448683547
-0.7302619353 -19.2794337978 -16.6680224662
-12.8833099907 12.579634183 9.6159344015
19.2469209334 -0.3635359331 -3.4314923566
25.2127307292 7.9048444387 0.9925826591
-7.4927568819 2.2266122566 11.9031744156
1.3749939177 16.8804297283 11.7565308315
2.9661746527 -9.6590677739 10.5895836006
-6.9505583934 10.4231572605 -26.461956238
-0.8973406042 -1.9382821901 8.3690105202
-15.6759333537 -7.9633304914 4.8416166259
-2.8032669778 -13.2916227588 -8.4178010942
-13.0957151236 -0.8896607602 -6.2280935283
2.018085436 -11.7356756253 19.2888200087
4.3914042546 -12.2444316945 5.0327185204
-11.3851589049 20.4068746928 11.6312630558
0.4665506824 -7.955859333 -3.0033634281
14.00374559 10.1430040263 14.0273519595
-2.8034364124 -14.1085251234 -13.4191782146
25.8019121487 -15.8863728927 -5.2156878109
-27.5637617925 -6.34507821 -1.1356275916
-8.6269106948 7.7891671898 4.9116408477
12.0403101264 -1.9103983572 -4.9391798767
-5.7263032504 13.613582655 -2.266864892
18.4428835126 -9.1840245744 -0.7737444316
-16.8515542896 -2.8578273889 28.5267543543
5.0115078373 8.4037938421 -6.1037062886
8.5376798799 5.2537416912 -11.9736750359
3.5124878976 6.9594252866 -14.7769951345
1.4967059865 -9.2777386089 -12.0786989426
-22.5000746692 10.9576013714 -3.3530027925
-5.4395733356 7.5266335202 -10.9370925594
12.5319730638 1.5307987076 -2.8011282483
19.0000636036 20.8257468699 -4.2961804502
14.8478844709 -7.9303971857 11.6214103685
-20.8298093805 19.7851629151 7.2657803392
-14.9696926765 -20.4171006092 -4.7948948008
-9.5168552848 -6.516504259 19.0025813846
-8.083866613 20.0304566857 1.7060166541
-11.0550481506 12.1357001684 -0.5960657018
21.3703950568 3.4646943502 -4.5488420123
14.6439080143 -2.0714973411 -5.4112670845
7.1918828147 0.3979571782 2.3234428686
-9.8216418483 -7.065109487 -14.3430582758
-1.0748279898 -31.5571108039 1.0775000254
7.1325032833 -14.6615275733 0.1554817625
29.0504130139 -11.2324597239 1.9249741182
-3.1392930622 16.3735568648 12.9567472322
9.633673994 2.0308206508 -3.9698411436
-18.2863423098 -21.7295014932 15.1441285189
-12.1387154248 -9.1358930728 14.5146263446
-6.2693701131 -14.5590609844 2.4407960688
-8.8258168718 -7.446847025 -12.0946816777
5.3246133863 12.7391035379 6.8548077801
1.6779238119 -1.0230565475 -1.4550315739
10.158216756 -4.7335945849 -2.1020534111
-6.521368284 23.0833567068 -10.0410168991
19.1796003921 13.9921570615 -10.8827756568
-6.0114984628 -2.2040157308 -8.1254121837
4.8840390187 5.9202737922 2.4243732827
6.3031937023 -16.5927343196 -12.6495234031
-4.4925574426 1.2513539417 17.160778155
-21.4450303144 -6.0107706674 -3.1567464632
-7.8065160399 -6.6085986621 -22.9512564431
-2.9304719693 -3.3035785912 -9.6057925501
-2.2929313098 -5.8236616286 -1.04439118
1.4416429006 24.7421261774 -17.2400618412
-6.4355460392 -5.4621705671 8.9293519837
10.8626347287 -13.8415205354 6.6715084148
0.8492204466 -4.8741446221 -7.7563977471
-27.8082142563 -1.326107506 4.613015526
-12.7671712878 6.7516616312 -5.1121758533
-12.3147801604 33.5371507499 20.2422903478
-20.4257841079 -0.2937660887 3.2893707832
4.0603397542 31.9754529655 -4.0680951875
1.6312014285 -15.1785723316 -7.8054224327
-13.5094984522 16.878576007 -5.7575076928
-12.4317825654 -1.0588528146 29.4476450935
14.7796122661 10.0165024288 -22.2033049715
-3.5995749097 -9.780547651 9.1717866459
9.4024401694 6.4641852622 -27.3365287055
13.1703407078 -16.2874889275 -5.8874259892
7.9027433016 17.3978414169 14.8666185869
6.9793217007 -3.7771772011 4.8970574466
-3.5054332135 -2.0706240405 -16.9273835277
7.9730935294 1.8044708686 18.6675446491
-13.4343263875 6.2145928191 10.5550972369
-9.2252388593 17.8836336371 -26.4934518035
18.3162742729 -6.7042227249 -8.6795776888
11.6428406874 -11.6682456068 -2.5432011194
2.742694776 -12.2699223239 -22.6800748267
11.512990286 -10.5116260931 17.7319989558
1.4048325363 -1.2256147287 -5.8181946612
-18.8421271878 -12.3309784452 20.1641272152
-2.9630615473 6.4800099003 12.4940112803
-9.3745002614 6.7342319727 21.5733678076
15.4375791508 9.5496874188 -13.3261069356
3.8579036267 -9.3454620777 9.4889208398
12.0876500398 3.4097175239 8.8063825506
-10.296589692 2.6881871516 11.470641034
-1.7221697409 -29.3378317313 -5.8456918991
-9.2826378474 1.2100102268 9.996950332
-19.2018923799 17.6225977643 3.6347539956
1.6790752026 9.7838075267 -5.3286404681
-12.1957181066 -3.3923683713 10.1357443934
-5.7383703061 15.608645423 6.1859895908
-4.5697757546 -0.3942316923 -9.2232116002
-7.1989807763 -16.2459994185 -6.6782960929
-18.9463164166 -4.3365139635 -11.736955135
11.2079863652 -19.675202554 -26.2062237197
13.5749620904 13.1853194849 -1.1482953558
-24.267577812 0.2503535595 -10.3573466979
17.1350180208 8.9723485824 0.9914302942
-6.679784108 -0.1193923398 -18.1369154941
-2.0151653741 8.5756758206 -0.2274595393
5.3771263002 8.2458051452 8.0130904484
-6.8121408452 7.7679744353 -9.6014105166
11.6935332849 21.3442216358 -7.3644869681
15.4514843066 -1.3634806721 -1.0380926956
-16.2123234232 -16.8919887999 -2.312097249
-14.6316944369 -0.7808531944 -14.4497883519
-6.6176992801 7.5167960192 33.4971138249
-1.4841865312 -6.5012253779 -8.1293148207
5.6198353877 -6.0899265956 1.0628169049
-9.8480680007 -13.145749353 -12.6033616275
-4.3371626028 -3.8494598962 -12.6993175849
-17.9365995462 15.6221832615 3.491877222
16.4103432384 11.0818027499 8.1250033957
7.6461272616 6.8750105807 -3.1025087652
13.2958492013 2.5340651899 -19.4018978329
-21.2367134841 16.2180413905 14.4205423427
0.6850575856 -16.7229793878 -11.7684858509
-30.8208921601 0.2141604204 0.5297123212
-0.2579663688 5.4790734637 3.6238610198
5.9527680967 -0.0135818211 0.4615643426
-0.6110007494 15.6656739457 -2.1742293248
-13.6678147796 -21.0086933707 -2.0014360992
-10.8866780525 -21.352292736 4.7945045433
-6.0757453824 3.9368576021 7.8149619307
2.5891218629 6.729131281 7.6598539063
0.6089394643 -12.7817079975 -1.4443366453
4.8264526695 -10.4603735991 -6.9698376677
-8.6587243565 7.5114178319 17.6761220179
7.4174148717 -3.9405901369 -19.341549377
6.4787596024 -13.5915418535 -14.3233275344
5.8249761606 13.5119481997 19.3006611635
5.3458222156 3.3300406321 1.8080161778
-10.2909889275 -9.4526792336 19.5306187624
6.9436313126 2.6904554465 -26.81723146
-3.3588234308 -10.6122246279 -3.0456807461
-12.4013832602 -1.3002824511 8.1500762291
-12.7068262579 -2.8660430828 -7.4892434667
-0.556078726 -6.9744402203 -3.1232008924
-6.0392831558 -9.0670979643 -0.9112278317
-6.4064869432 19.6029444976 20.6325929272
-3.0737652734 -6.3590011986 -9.9362027002
-1.9372983864 -17.6644954068 8.8509550807
1.5363528784 -10.4520923791 29.2452481495
6.7203761653 -0.2874934656 9.5301362652
-1.7554001774 -8.7450767442 1.0528029379
-25.7464548031 1.0936840143 -10.5960215849
3.4520583884 3.2809500409 -8.4967449422
11.2895866236 -10.1913113416 14.0296921691
13.5236294824 -23.1879611812 -14.0110603483
-8.935354891 13.6385217087 -14.7896821583
-2.1850972962 5.9599301171 -8.7193438702
5.5950797385 -4.4451547938 -9.763089877
-3.4921600644 8.7092693231 -28.4308006693
2.0974009464 -9.1743982952 6.7667325772
-7.168776018 2.2062181132 2.8245234555
10.0549713008 8.0619800652 24.9510157565
-4.619795947 -23.1652317978 -4.5376707566
-5.4297449547 -9.8023397122 -4.6095424455
-13.6475694701 12.5646561628 -8.534131995
17.3391127099 -12.5599679993 8.343922483
3.8990418798 20.5925473998 6.2529999669
27.1639469678 -6.3106469621 1.2189782214
-11.4599416878 11.6826066616 4.1902335731
18.4759878893 7.8580505062 0.7498318242
-13.5830527406 6.9180796844 4.7904959415
18.8985120542 -12.2531047253 -0.5319308586
-15.4267801651 5.304899582 9.6035636986
-13.5255820239 -2.6734787812 5.1470592611
11.9937832393 -9.0180353338 2.6606550735
18.2619201529 -23.3677920749 -13.670623045
-21.2111478774 -9.7243743876 -12.0666317674
-2.5268211736 -15.2203293813 -9.1005477129
-7.6682337844 2.2300155896 13.274856074
-3.3812380328 -18.4465124049 -0.9011232299
-3.004406416 -16.2857054568 -11.2088424315
-4.7299923534 -5.1584523576 -3.5142930059
-3.0688979074 10.9614690635 -4.3597984901
18.0856207236 -18.7099593664 -6.6395477325
7.6249895702 13.5957025362 -5.6491667886
9.3037025229 -13.1345778705 19.0316010583
-11.3291483529 -5.5340673542 -7.418446296
1.0698725462 2.5085744058 -11.5289586475
-24.5857338026 -16.0777354576 -1.7338932955
-4.7791337877 -15.1544445766 -5.9729216216
17.2477212058 -16.5957569247 3.3840922574
9.6547526151 15.9716420483 -5.7844065491
-12.8853256198 -15.3737427666 15.2489025461
-0.9832765011 3.2263182693 1.9794018362
-13.4367922523 -8.8753562934 -14.638555132
13.0798753411 -22.6219553367 9.1781380434
-4.1799843916 3.4076442654 -16.5256543763
-8.4129406149 -18.045002264 -7.8098660341
6.7965393482 1.8393229266 19.8453610954
-19.1409740309 -17.0978304135 -2.0127811526
-9.8867634805 2.4366089115 -3.2263791105
-16.3537158951 -6.9037692604 -7.352943265
-25.8732513105 2.3205715049 -0.2908600647
-6.1711874622 8.6477513829 -11.5342675359
-18.9203652101 -0.9732998659 -8.8069856347
5.9724873869 -20.7847516654 -17.7288598692
10.9827122162 -8.4074554871 5.2592238037
15.4697456727 7.5976177399 -9.628289217
14.8394788927 1.82685059 -15.7825977538
1.0669409124 7.8733370212 -22.8501983864
-6.3449167831 2.3077338444 9.9471762925
4.8344965415 -2.1793485218 3.617533764
12.1669241473 21.0840016227 16.4181778296
10.2038888168 6.6646810906 -4.4606613026
5.2349160656 11.2379106666 -1.0619912045
-4.335824022 16.0153490698 -8.1654018003
-4.4393420196 13.4437294934 -4.5031844336
-9.188837656 9.2234844342 6.2703405212
1.8890005708 -9.3457887331 -4.6841847216
7.2765480384 -12.6528127114 -9.7981307078
8.0897578523 3.921462989 4.5741473115
-12.3384978663 2.1272843416 2.7753778402
12.8052125675 23.5469893411 3.2618591087
-6.4812436893 11.1563080314 20.6090315264
-9.5052639999 -0.5510391651 -11.7043192618
6.1428807197 5.9539986086 5.185542712
13.1683939502 8.4704553494 -13.0396336985
5.5845705232 13.4431572701 4.0461355411
24.1000972848 1.2621628082 -1.6445876053
-5.8703675117 6.8185449631 -11.662857409
19.0533235592 -6.8021687715 -8.5031386351
11.4015744697 20.3127255884 -3.9336855292
6.3358679846 -8.0168648171 4.1577523794
-20.6247439273 4.0393132778 5.3976436442
18.9584110247 4.0574858598 4.2638562349
10.5396984456 6.7033358427 0.5027120458
2.4567960663 4.0022471118 1.0802144235
2.2765532239 7.4012855062 -7.8508403731
-4.8593422825 3.000249393 -14.2470458875
1.4370753654 -6.893413928 3.5629933889
-22.7490911033 -0.683198717 -3.5354602202
18.9526019829 3.6928221814 11.9072873668
-7.9182784834 1.0515475436 7.3406120989
18.5473359235 2.9752589678 -6.8829315065
10.7958362382 -6.6604249418 -5.4620012337
-20.0431380679 -9.6900590521 1.8462841669
-4.8043969501 1.5723672294 16.6391265907
-17.8751067815 11.1478549153 1.3829879941
14.3551341842 -14.8835376814 -12.564442873
-9.0350135255 -0.6184349996 -9.6633784104
7.1501084948 -0.8396649995 -10.6313534463
-17.7094319094 -13.3506889796 18.4439597072
-2.167255492 -18.0992141299 4.7250770282
11.9059053618 1.2323327162 -6.9314527688
13.1151464212 5.2427520379 19.6182706049
10.4135788891 -20.2590333014 -4.3750171935
17.8281007212 3.6194504684 26.4352611959
-16.5081186268 16.626960025 -4.1309098609
-17.491588944 -8.8207849565 -7.0748406221
-11.7821688391 11.1029437761 -1.908151662
-0.3668515073 10.1624362098 18.0828814502
3.5380097061 -5.0837671466 0.930321191
-23.477851199 10.9874982172 1.4345846168
7.543149967 -1.8735361742 -4.8497730373
15.4224248101 -5.3527797554 -18.3044707195
-20.1860443201 -20.104661271 -12.3050577266
10.8722191881 6.8040806128 8.0936692828
-4.5797796673 -3.2683041182 -0.0665341959
-2.4002417467 11.2682658428 1.315390808
2.9742547292 -7.3468218108 0.8619971225
-11.2018644984 5.8203752641 -6.3748237257
0.2567286441 15.0171740233 -7.2750111204
12.6800247181 1.0713981135 -0.4268481645
3.4838875876 -17.5133758044 -0.476624244
0.8931700602 -5.0212962234 -2.0110560223
5.415865619 12.1477018204 -19.3782898096
-13.6024485361 6.9167576618 8.964884399
-1.2084001796 -10.7886402943 -6.5490139154
4.5115126183 -7.6202501118 10.5566613117
-4.1715609887 37.369934243 -9.1890129283
5.1565168047 12.2383282043 5.6442775873
-20.5004965398 7.6638550397 -18.3480140998
2.1064532737 -5.7782312396 -8.3882824441
-3.6981735889 18.5504211756 0.5337239403
-0.5228581646 -13.5785709325 -2.4074881517
-7.0346923141 1.4252632896 11.6329666595
-14.8342694792 15.4623674179 -1.403910055
-21.1180207833 8.7330490993 -1.6268731629
-8.3058900654 -17.8860997329 -1.7963313397
-16.7328529262 -3.1568119871 -3.8420993307
-5.5788387389 -4.9533483837 18.769003285
20.9963323718 -13.1414631015 14.2514750214
2.5215901129 -1.7742313272 -2.3019510831
14.0374921858 -1.5825146249 7.8676630995
-15.9169767965 -6.9204139714 -9.2274618426
22.2633157726 -7.3997958131 -15.9707820725
-18.8954114468 2.359768931 14.816194954
16.0117037772 4.4236899118 -8.0794917098
5.0008458365 14.0410652019 9.7738937986
-2.7408997493 11.0637545879 8.1194916666
3.1784036122 6.601879495 -3.5653315236
-5.1310188451 -17.73500386 -3.4764109884
-3.8248150547 -14.3367301865 -3.2420567959
-11.5974219737 -5.5870102342 8.1661950079
4.2235114414 0.9340940541 0.0701516604
-2.4504382226 5.0419890796 -14.928028231
-3.0296409926 -23.7546243324 -8.2400828912
-26.5830435965 -2.3977684601 23.4663347589
-17.2518767468 -6.7032716625 7.688699145
0.0261945916 -0.5644119934 -20.8010315125
0.8873570991 6.0687093967 -2.7935361234
6.3879640773 6.5794932872 -19.6911111553
-4.292918264 -18.8737587576 -1.4625898668
-19.4064151571 12.7989366242 11.8566380612
-14.7149800791 -10.858610147 -8.8981455471
-3.9938318858 -22.8345167529 20.6798690014
15.9410221545 13.5737993034 16.1954767367
-6.9637311072 -8.4919626417 8.4312220426
12.2405345219 -9.9220086904 -3.5014414676
-9.2991844401 19.2820536394 10.7141194791
-2.105880731 18.100654023 -12.349564825
-26.2849549884 -3.1718380652 -12.6969596216
-14.1023025845 -23.135187517 34.148049997
-2.6265446343 2.4394497078 0.3052034839
-17.0751947644 -14.6795216587 8.1245566834
-0.6621498959 2.3762794785 8.4566133693
-8.3082517249 8.5168391062 25.6804825464
-23.0036273462 3.7005512132 8.5023665097
-3.0638685556 3.7664292624 -10.1291185244
-5.1918481417 16.641497822 4.5243854141
6.5364537313 -14.5011045454 -15.5819831842
1.2406866034 6.8950584541 0.867269375
-0.3671853823 0.5810723086 -4.6418586852
-29.7180257056 -15.7652931417 -16.7411404581
-7.2212610353 -13.3766837977 15.5133267873
-9.1693311351 3.3484399623 -16.8025103644
25.669565177 20.0718081816 -0.9039350895
-3.4613058801 -2.4045321658 -10.8279276481
-4.023440621 -3.5576470396 39.6439628748
-11.1953734319 1.3530271541 14.2884846808
1.6221151505 -16.9384656228 -19.5440422664
-16.0732943201 1.3864395539 30.5178884812
-8.2015483075 -20.2759505995 32.0402077335
-23.4193868358 -5.6250253912 12.9755509535
-8.6411157605 24.1561690197 -18.967933312
-5.0726507136 -7.6267941558 0.7844708643
4.3616694742 -10.1154709518 -14.4214550868
8.7706827757 -7.8936041251 6.7696787145
1.7428166936 -8.3015642735 -16.6569262659
2.6217937382 30.7764716154 8.81903368
-8.8338808123 8.5448711584 -7.9689020414
-24.0317097543 7.2421229196 -25.6733900187
-5.5436693387 3.4433222214 10.6650326634
-1.8041282293 -1.3560592628 10.210836363
-14.0974678521 0.0268227533 -13.2508564676
1.9291459172 9.5793240503 28.9687678487
4.4909041562 8.2451244839 -5.2036347892
2.579337694 2.2522642224 -4.6290969257
21.4097172505 -18.737114636 -14.223085284
-6.6368112747 -20.8017879754 5.8495670234
0.3748788875 -17.1301808797 5.3102694098
-2.4296235204 -4.2853148583 -3.077082851
3.6514335756 9.3669864564 16.8402385423
-5.7466436671 10.0971166996 -0.8514475418
-5.8104639362 -25.3710795744 2.6227894261
11.6934799076 0.8910143018 25.6210747206
-2.5770623574 -8.0617777635 10.8207025003
-12.2165674728 11.2578604178 -7.7305899388
-12.4740958634 -18.6119244688 -11.8501946663
-0.539080224 -12.564842693 -14.2517491812
-2.941450988 15.9079072275 -36.4988590965
-32.224793871 1.2071185666 -10.7136442876
-2.3556152978 13.2828760939 -11.9870093125
-0.732551013 9.2941995645 -7.188808782
-8.6950075253 12.8732121861 -6.1000085431
-6.7933153169 -7.2748222685 -10.6165670834
34.0194526488 21.5124476259 -6.1652360849
-25.6103724784 -12.5120673978 -4.5100791881
-4.4100799971 -12.6761936059 5.3943803468
7.4845857242 4.6331507633 -14.210498361
-2.2189330799 -12.0312825134 -14.1943656429
-24.4567534674 -23.4349004774 -0.61909954
-7.1659710977 9.0981544724 -4.97436086
5.108152043 0.4700324653 18.9799413586
-9.6640319699 -2.5288558442 10.2444496712
-22.0049987023 -8.8361137609 6.3453332613
10.9261605211 -15.4889482586 -4.2782843472
4.3910953409 5.7089614615 1.4889779977
11.3783307893 -10.7438884414 1.2771908417
10.4465751614 0.5032194197 14.0760964072
-4.1378855797 21.4387321957 3.0125868585
1.2692910204 16.3127464575 -4.3389733727
-14.0130374927 -4.1118800372 1.8813390224
21.105756869 4.6907486994 0.9726324215
-0.5737617878 3.5142508887 23.6179147066
-3.4968867067 10.223172518 3.0841924152
26.0157322279 -1.9608464999 6.335147696
0.0201203876 5.0242530387 -13.5846184504
-13.7169179891 2.9996776783 -21.0339727399
-3.200876405 -2.5312109525 24.1362946583
2.3472744923 -7.2251267782 11.7676232972
12.3276761781 -11.9159827302 -10.0491084488
-1.0390791927 13.8142858674 -0.2762001254
-5.9711503455 -1.6311175784 10.0163830636
-0.8582782106 -2.8999913503 -12.254224218
9.9468154321 12.0744260407 -16.2575435785
9.0139369481 -7.6391376229 -9.4635466708
-9.1442081874 -18.9753344996 -6.6657329893
-3.7150703192 -1.5976277492 2.8518514932
-3.4841280724 -4.8351013008 0.7506282349
-13.1701007423 -6.5999202811 8.4372199163
-5.4912709296 23.977446023 8.5563735465
6.7179943579 21.0329966539 -0.8983377279
-3.7214719167 -15.7319746335 -5.9633080122
30.6294969003 12.9994637386 19.2620868078
-0.532833739 3.6347916522 -18.9120646524
-3.9777766904 4.3979631779 2.6095678835
5.3813649674 6.1086985439 7.6607826764
-2.3852302986 -21.7629732513 3.0652615851
-12.5187869353 -20.3426539741 6.1617076932
4.6763642845 2.9739462428 -8.5007624682
5.9044969856 1.9272339956 -3.8555702379
8.7264910206 -10.6589219499 1.4122075859
-2.9309618996 12.2359042863 -17.6466601393
14.9535300007 0.9309013952 -14.8899209044
-3.3126849221 -5.8630113919 -12.9322531011
1.9686250507 -5.6515472671 -9.99350117
-18.7549078418 -6.1637838991 2.2934855947
-5.3298443934 -2.2316574312 -12.8463914022
-16.2671845803 1.152487334 1.0465064347
-10.6232022211 2.9982148971 28.3101694484
-10.2568783708 4.5565771735 14.3378904372
-0.9502479472 -5.4536695796 2.8995818328
8.2465622052 -10.4834842571 11.9332532888
-11.4771800072 7.4314684508 -13.7993274491
-14.1759207768 -6.2099643765 -12.2487535102
-8.189995468 -25.105209072 5.6772722631
6.2307065219 3.5610756578 4.6489643537
9.176503067 -10.0606680694 -11.4251693526
-8.9914770008 3.4805758751 19.4950867772
8.417181862 -4.8795331393 -0.0212966396
23.5443352518 -13.9112088357 11.6563957661
-4.1453308451 1.7091614478 -2.8388433001
-10.7763579654 -4.0301231174 -6.7608666002
-6.5401955781 18.7715113031 -3.5098504705
-3.0197049586 -5.0379212978 -15.0965748751
3.2815024525 11.2075316038 -15.8597935229
-19.8289937307 -30.7257727044 3.4475474011
8.1979163566 -9.368916091 -14.858882411
-18.1955141801 -9.1210040102 -5.9464605543
5.3488074051 -1.1605118282 -1.1575402779
13.4381215827 -16.1606099811 21.8448036238
18.6123281265 6.2764099143 7.9094613231
-16.5239539238 10.0506963202 -6.8520555445
9.7595503548 -1.084156899 6.1908072753
1.5390417934 -11.764111163 -4.172301892
-4.0920768791 3.5892474363 10.1165583198
1.4387720402 -25.8211071145 -7.3726488023
1.1572540894 -7.9716558184 12.4742663418
5.0716047283 8.1513465098 -13.9215378422
25.9988379344 5.6532057686 28.2173799315
-17.0358421357 3.9578565376 5.402552151
13.8924885529 -10.7376632447 -11.8494815121
2.1272029077 -17.18210598 -13.2093270397
-2.6331473625 19.5226334601 6.1883316242
-27.7176566556 16.4681411349 11.647140563
-2.0936072592 18.5012548146 2.5597015971
-20.7878970406 -20.294955776 20.8722289024
12.8925751359 -3.8798974336 -6.2086962188
8.0713223812 2.2687304149 -18.1753483367
1.4393457832 -15.9201022644 -0.3755388827
-25.9851395527 2.5596537427 -16.6061796094
-15.7729642052 -2.4593528801 4.8488779759
-9.0197227213 -6.7103993984 -5.3492472275
12.5787507826 2.3092269654 -4.2480434838
-4.0188517648 3.4678255302 -7.1826133377
-11.0773510003 2.9485253096 14.2967608594
-23.6338217183 -27.9955930755 9.3901530464
13.4313938128 -4.737311059 14.2483861629
-8.7222619463 14.6320193929 13.8229099754
2.8852460348 6.2160588948 7.5679602259
10.382724062 -3.814450649 12.0507191632
-5.0608057592 12.867308977 -7.3776480413
15.1727585192 -8.099761896 -11.1931276905
1.0232663617 -10.7476395224 3.3271163547
16.0772018221 -1.6588559932 4.5030883648
22.9066264452 -12.1866477917 -21.9131751837
-23.2966105645 3.9211069093 11.1563788389
-6.8550355267 -2.4015790003 1.1926338709
-0.8808596564 1.4394325579 2.0313332538
-6.1615103005 4.0494186364 -8.476904043
3.8569612682 -2.8774728351 -16.2126622745
-3.0741677822 4.0533124449 5.2596013722
-14.0137851866 -15.1176898282 12.6704017338
0.898995401 5.5585242588 -27.2501554981
-5.9713965989 16.1019280024 7.7516858107
5.7168209338 5.4743492261 -3.3502853455
1.6475496946 -15.7538143202 0.6923372509
3.1389463402 8.0075185172 14.7775523982
-5.8041497856 -20.466284516 -8.5396881064
-9.624411039 -2.1533119019 4.629285304
2.4430302602 -1.6280625602 17.6307203002
-23.1618192691 9.3957163845 17.037589203
-16.0412083997 1.8682798529 -3.3845180676
14.4553154064 -6.3425868403 0.9304813829
9.7254629069 -8.0252293559 3.6229493811
-9.2972099601 -1.1212954955 -17.2106896391
21.5632377377 12.2501778598 -11.3299497517
9.8973542885 -15.2394517056 -1.0502226298
9.4753091133 -13.1272748971 10.9938452177
-9.5906026819 11.7937843722 2.4854679408
6.3978966476 10.3653815684 17.3131087641
11.8350983119 -3.5543737843 -0.3633185062
-17.3171683424 -11.8719513672 19.1031350405
0.0703597028 -0.2635150695 -5.9995531013
-8.6265145829 -1.0109374563 -1.0169763137
-7.1652332703 -19.5184994322 -9.2223206285
-2.5468948789 3.3398303482 5.419434186
-9.3163064961 16.2789620915 17.531889253
1.7999256785 5.0019643077 8.9066399482
1.9860428537 -10.1350862121 0.3749201583
-13.1479929295 10.3172487445 -8.5574192073
0.2510496181 11.6797102954 -7.6796236851
-7.9643329674 8.7731963033 9.9303449779
6.0633269711 -1.6178539977 -18.6702678628
22.7490218078 -3.7341849611 -3.8675222348
16.3399278638 12.0564778637 14.0102470488
9.550319045 21.2835744101 -1.1871711576
-17.7285617579 8.8176486024 16.5176470619
6.5675752961 3.4386076653 -1.2416792662
28.1387995152 -0.1871254947 -1.6934737563
9.8204707962 21.2008736158 4.360450457
-12.8109403958 -0.3034093883 3.1523375424
5.0755240922 -2.4385314765 -5.2445763701
8.7195671283 14.6411299137 -0.0860419963
-6.3657572771 11.7661110341 8.7436015517
-3.3398138593 -8.5873562153 -29.3259223879
-0.3199909645 -10.8592668995 20.6250836255
5.3607463349 -11.2450712455 16.8018863493
-3.21079335 15.8362179353 -1.8003902357
-19.5602131095 13.115252844 2.9373642062
-16.6965367514 -4.7154566874 -8.2962356194
0.7136659286 -4.0235876144 0.9167411221
11.1303803447 -2.2796643538 11.7235378937
-10.2411184358 0.275631351 11.8342943434
-13.9558435332 -14.9409482269 1.7798511763
1.6593966879 9.5079199959 11.6264868067
-4.018012898 5.3481521349 -3.0086183543
19.8553494067 18.2148978192 -23.6638220194
2.089199508 7.0212811696 -4.7467851009
9.6410514189 -2.099080047 3.5112583452
-29.3017416829 26.93973277 13.0370003517
2.9437074592 -16.5355283113 -8.274077539
5.1138515883 -21.1621178136 -11.8275225526
18.0965068916 -3.7678285162 -22.5494620866
11.7268810341 -4.4951619488 -23.7271992515
-2.4639232785 3.795791201 1.2148423499
-0.6079209449 10.1378141629 2.6139348622
4.7331526177 9.9715364401 10.7071512486
-9.8795013737 2.745876583 -10.7737393316
-0.2145929299 -2.946234503 -11.085099518
15.5315746032 -10.2624755872 -8.2255986184
1.4818067345 0.1905000046 26.9140224727
-7.3719412814 -17.9099681081 17.8138649149
-23.9088368568 -10.020201006 21.2554796524
-2.9998300384 4.9616681107 4.4272668916
15.8710599096 -19.6213539135 -5.8321416285
20.7531770857 16.1224506359 -6.4169368735
-0.1303622315 0.2723620414 0.4348682095
-1.4597113814 1.616196462 0.8306701377
-18.5089347717 -16.5799607566 -2.509663573
-2.9083465838 -17.6621211968 -4.4357092593
-8.4728602949 7.8611903533 8.522005931
-4.712202587 13.0042872288 -3.3941457104
8.8443385079 21.8909039636 -5.8343690552
13.3219617581 -1.5956993286 8.5083819593
0.0883304512 -3.5511721841 10.5561415076
-1.7827135241 -0.2732000278 12.554913029
-7.8527222742 2.2141412451 -2.6104845744
4.3613104859 5.6457323587 -25.3380490298
-0.2454136425 -15.4370025663 -0.0623141592
-4.0522099024 14.3516610627 5.4714270335
-2.0326665169 7.2667351221 6.0729386222
12.8030731475 -12.0719009442 12.1565768819
-6.8927438215 -3.9205925741 -12.101925429
14.9115168417 0.2473641739 4.2039657422
2.8769720709 -2.737683933 12.8535105636
16.279571657 2.3243725775 9.3654652987
-3.1137543876 -17.40316913 5.375732805
-3.6149318072 -0.4107941021 -3.2423562944
-11.4271139049 -1.2198693119 -21.9551710764
4.3190146721 27.4181224039 9.4804917811
8.0003901545 -4.8992766434 -8.5524909954
6.2764769085 0.9214143496 -21.5488002739
-13.9546812863 12.4176736105 -3.8217273695
8.6541114319 -29.4361136705 -1.927786433
5.3466138581 0.8090580732 16.2053623111
-17.7168409755 -6.2435813398 19.4406515256
-3.3748769125 1.8867489038 -13.5166520305
4.9757773196 -0.6616825639 7.1668153484
5.6890763986 1.7945769722 5.8954230648
-3.7008944619 -1.1947474781 -8.3132195457
1.3753392039 13.9849603946 -29.1814075299
5.2137954973 4.314131256 13.5181996685
15.2698366015 13.8104704591 4.353056187
-14.9852893715 0.1878068545 -10.3281795065
5.0946538298 7.3322428585 -12.4078977316
-2.2553959167 8.9371913863 9.3208117685
-15.6731298067 5.4710419642 42.8632435179
-0.6563133125 21.1776068427 12.39844181
-22.9310091204 -6.2572425516 10.0102873637
-13.5033955205 5.9834224157 0.205474979
11.5261198594 -6.8371822041 -29.5702279899
13.156709871 14.3092693004 19.0380423316
10.2290939198 -8.7570683593 -1.8106046811
-8.8013002726 -0.8649397158 8.8374895349
13.1999766994 -4.5592964323 -4.2901491367
13.5568596821 3.2454482347 -2.918255352
8.8988944438 17.5670118969 -10.4904180359
13.5579970262 -19.0565628108 15.9336756282
-2.7255059257 -6.167782835 14.0343908069
16.2745528767 -5.6108791742 23.2336921164
21.1402875806 28.6510749824 0.1961603378
9.8115755975 -17.3543835332 2.599333544
-19.2111691738 -12.074981 -10.2812083871
-2.3500549401 -0.5159242532 2.2519806452
14.3212460747 7.3889717982 -15.7496712418
-8.95843569 -25.4001309357 2.6848780276
8.0794539866 23.8194834803 -9.7325713714
0.3670763183 -5.6441571876 4.2066485405
-2.0759579646 8.2986652622 24.1209066129
-10.9354276684 -8.3176673471 -2.5473270918
14.784422834 1.0249910711 3.0241871648
-6.7493466452 -0.0413961096 -23.5071608639
-11.2586693239 -11.4735487683 13.4479187239
9.3272644639 12.3995956968 1.2504235271
24.6273132168 -3.4308850905 -15.632891792
9.9703251872 16.6857208742 -15.6686310248
4.7544724443 -9.5063757997 3.0242417763
-0.9541459232 17.836767107 16.1238093306
-13.2739203139 -0.6923959383 -11.3386501357
24.3677792931 4.297917423 -13.9326384274
-13.1890162353 15.6145070761 0.6442339969
-2.5256704624 -22.3563987044 21.0613640903
9.0725250894 -2.7588277906 4.9336444562
-11.9442538587 -7.6353366328 -18.5007517752
12.3380899771 -1.0852356482 -3.6842165975
5.1994839884 8.2642114763 10.2827048956
9.2309841507 -9.7903685745 4.5025746397
4.0679360953 4.4637640182 -3.8178064735
-0.0552847287 10.2856484781 -11.4308519067
-18.2225041991 -10.3393041213 -15.9959797006
-3.7268256918 -11.6715626591 5.5521317061
29.6069095185 9.1925701444 -8.6647891946
-13.5657107024 14.9067788062 -7.353236855
-8.7986016782 -9.6623692238 3.9494463237
9.4725632567 8.7877241486 7.6156305322
-10.6962894019 -17.167661649 -12.1799205269
21.4813348082 -24.1008598589 -15.7072995485
23.3375887863 5.6418492572 -16.9225293879
3.3714176925 17.9424622732 -2.6215484007
12.3113998044 -18.2818325751 0.1408673525
-9.2819511798 -0.6670456268 7.8527304781
-2.6026915022 -1.4240642626 11.0999168863
14.2316226605 -8.0326896836 -5.3237605249
-3.6512022766 12.0932640737 23.2994718579
6.2211251065 -13.9795811328 7.7011694904
-2.0830972331 -36.4182228796 -2.1111952297
4.0007675616 -16.0201114552 0.8790215412
-10.0427010647 -5.4978112827 6.6738572782
-7.3089412774 -0.5309318503 6.6793572241
19.8641235644 -10.9183917378 5.9120745552
6.8550888377 -2.9071519886 7.6496695832
0.9970969417 0.211774464 -18.5004492338
22.6064690062 1.9457748495 -11.6931826253
9.3963163259 -7.2657253183 14.0681211776
15.1559434993 21.4190496511 -6.6686806974
-1.3338067236 14.898368842 -9.0895099144
15.0414716354 7.0444727494 6.2121056834
8.5537272155 -8.2922163172 4.9047314206
3.7472932329 -10.851273328 -9.5908854044
-3.1041366066 -13.8481297647 6.4327479132
-28.5223851161 -3.3359414413 -4.8928253659
-0.6065478397 1.8631178116 -1.0845272717
10.0141378831 -14.5101232995 -12.4627258385
8.8563546458 -3.0779411968 -5.7603037957
17.3495435188 -11.0496599392 3.9899992209
-7.4405677866 0.7084957196 -28.4019238739
-4.7473738081 -17.2693225471 -2.00114852
-1.8425911848 11.6997046983 -0.595848397
5.0568437516 19.1297473748 -16.4318961691
1.8770751603 6.8512261136 8.6799966711
19.5177364787 -5.0890670676 -1.8208379919
10.077280203 -19.238563226 6.2680796995
-10.2158958391 13.4592469358 14.3444024937
-6.6380410047 -17.4701471416 12.2731439357
9.3237920803 -1.9718946506 -25.8504248797
1.3260340069 10.8203174036 -3.6817800027
-18.5881535733 1.6627543664 -22.4120793446
1.3284411686 2.5137966031 -21.1556499845
-1.9439494729 -7.0409072261 13.5435084173
-14.0044681075 -32.8907589084 -27.0194822916
5.0506479693 4.2246735423 -5.8686728367
-4.179784375 7.480545255 11.989214075
7.8408457149 -7.1676099482 -35.1321125837
-15.4653103758 -14.2950926656 23.4889435839
-0.8080878251 5.776190421 1.7950586015
-15.1454093094 2.2364632672 7.8688722828
3.9270682962 -1.7129220536 -8.6410043066
8.4220448626 0.8374587418 -1.1940831156
-3.3544691099 24.2823801668 -10.8980054196
-3.1674294367 -2.2879042705 4.4720970023
1.3536681542 4.3122291481 22.4720850756
-6.6039411871 12.7202857118 5.7326497205
13.5583234676 12.5149676967 1.6766494681
17.7440057233 2.7060034406 0.1000630772
-7.3135630162 5.7551388837 -19.6692301439
-7.8297408261 -0.2754726219 -4.0383661283
4.7855744013 0.527699703 -3.340976487
-23.544177522 -4.8178649831 -23.7461407934
-6.2570915514 2.8995845879 18.3372524278
19.3211447348 3.615788545 14.7062338498
6.8142080576 -17.3339749174 -9.6818260741
18.0848580699 -24.9122906841 1.439049012
-4.1715273843 -11.132307074 4.2492631816
-7.1579829224 -21.1843163575 -8.625137397
4.4179385245 10.346153805 -1.352726196
11.7676799538 -2.1020414642 8.7622411402
4.5012228024 5.9769033973 8.4951157484
-16.3367730485 7.370832715 3.5626774755
2.2250811338 -5.969020704 -14.4013809636
-2.3743003319 8.5023949243 2.8738267086
-27.2731985757 -18.6616098641 -8.7132450991
5.3672558536 18.9351042223 15.6119541981
-17.6402450667 6.7529719195 -8.6373759255
-4.637416713 -21.2241662051 -8.6351135485
-7.7309921408 -1.5562693354 -1.694868016
18.4448307561 0.5129521675 -13.8395785786
1.842052813 -3.9192596909 3.9749244654
4.479034942 6.0608557916 1.5143251229
-9.767689516 13.7550387803 9.3652878937
-7.6391230072 6.3798806383 -2.9244991704
-13.2194820075 29.5074712863 3.3602086039
0.4337401371 -11.965705015 -0.0785855658
-18.9783332497 -14.1361502275 2.5789470773
-11.2802517491 -6.8717156926 3.4095999824
-9.3435417283 -1.1815349344 25.2198300115
-1.2544791342 3.4768019053 4.3297388729
2.3216812426 -6.161744622 5.8409622069
-13.2119585295 -13.6730746709 7.317726432
-2.6012657373 2.3804224779 -12.2227158399
2.3219427002 -1.0799757057 19.4413172953
-14.4285703552 -9.4373977501 -9.8308370514
13.3595570914 -11.620535906 -6.0780759709
-6.6464525096 6.2913720875 4.8390143845
3.5602752084 -0.2643009223 18.5620977674
-0.6356912565 -15.0868675049 -7.5326282435
-1.7598247997 -16.6414842675 23.3835470753
2.8049503721 7.7775360811 -14.1361179217
7.2726022478 -20.8252432441 22.6405449261
0.463004285 1.7290970973 1.6343916987
-1.4771887596 12.8199056048 -10.4009661919
0.1645735765 27.226841608 -13.03725996
-4.7296147832 -15.2296170595 10.3505243144
-7.8650258628 1.6489294742 -11.1834011205
-13.8193896906 4.2361172673 -11.5990763922
-8.9936273782 -0.5118166398 -3.8461330249
-7.694796895 -7.2864228104 3.00070758
10.3038812457 -11.0748747142 -13.3885160444
6.9526666696 18.7262825743 -0.2983953315
-9.6375446238 -4.5998741664 5.531205915
10.9277184601 -3.7022758049 -13.1722485351
-7.6154390885 6.6382579884 3.5787399612
-6.7886219413 -2.098690559 6.3831533496
2.7989588453 0.3788000711 13.0083991414
15.9386314471 -17.5239347433 0.8609463954
-0.1342024664 17.4998247208 -12.190953831
-0.7073849744 8.5633412836 2.8799528398
-3.8233418851 8.515824392 -1.2767372988
17.5766642821 12.7595842803 14.3019664953
-6.0836032596 3.8647872672 -10.1444574448
-25.1457007627 4.8682420838 17.0674811771
19.1917382388 4.2189998561 7.2167222217
29.668262709 0.3260965912 -3.9535916847
-7.8237231781 -12.5482134174 4.3269300901
-13.1472508803 3.3809439318 -3.7648141605
-1.7449533191 0.3873831058 7.4441718462
-9.9477463853 20.292431882 -10.6815380409
4.4303942385 2.1244680534 0.9419705197
13.3425679417 -21.5748200071 -10.2073421785
4.7082833939 -20.7806421087 -4.5471155028
10.4438190194 4.3076471652 7.8202183341
10.2082233535 -0.007200933 -14.5837477121
-24.4308168018 -9.4722547345 1.2488652543
10.3053498356 23.5574609515 16.5201995779
-12.1559127026 12.5944384567 8.3308666756
-6.051490515 -4.0641777919 3.6271628456
-6.950525389 -8.8749740155 -9.9194208525
1.6089208459 13.658845312 -26.4986949899
6.8191864303 -15.5263127759 8.5851988629
-17.0583735945 -7.7622091012 -3.0175008308
10.8762384506 4.5526095755 -22.5410603132
33.6689862341 4.6960721934 -10.5526761539
10.3065978089 -17.0516278555 0.1351905324
-7.2440177247 -8.453744551 -2.6774017397
-1.1351174057 -0.3947842209 5.9233342035
23.9099339566 -15.796302029 23.8821483672
-4.7442656011 13.1339024929 1.2278273857
4.6732697121 12.3400447265 -9.3144274695
6.1202845099 13.4188668382 12.2100324351
22.7924910016 -7.4269375506 10.5151378723
-22.3668710739 14.2420195706 -1.72161932
-5.4961404804 -7.5625192577 35.2094996802
-14.4353620365 -4.1217398548 -28.415055288
-9.3031098613 -11.2252590549 -4.4433562383
2.6841293444 -1.7251866602 3.6821427216
-9.6821924531 0.6367665266 1.2990915115
-11.1434745276 8.7701329865 0.3524940122
-2.7989337261 15.862085554 17.3386173518
5.3841964372 4.3792453725 -7.9051537544
4.2547040639 7.1650661375 1.5493049271
23.066166308 8.4453773165 -8.1492840365
-3.3862606657 -0.3490896084 10.1831809846
0.3314132495 10.5650451423 -21.3163293962
-9.3392898792 -9.7497495545 -18.4889096268
15.9968067086 22.3843395327 2.7198001898
-18.2701095342 0.8952274521 11.2573459763
-20.8851375295 -6.4531047451 -9.7921024445
11.463299728 -2.5260138577 15.2185872198
-28.1244635176 -1.8759709369 6.6501445318
5.6691370395 3.3216508506 3.3952391037
-7.9459437043 -12.7509228406 12.9968140788
-0.1565040568 1.6419094956 -1.7668439628
11.10769747 20.1768481683 -7.8517291015
-23.9360705433 1.7670070849 14.8619379651
-7.5831293378 4.6905588241 -13.1415785493
-2.4500237107 0.8764184512 6.4241067661
-10.4623074978 9.4885896376 2.9173149178
6.4239099258 7.521568668 5.8672530424
-6.6536875389 -11.8922796939 14.5773395785
20.7419744767 9.7916872037 -1.9434003269
4.030772828 -17.4189194112 -5.6118313846
-23.378538714 -11.2899109181 19.0584697777
4.5192272797 12.8098419489 -15.8321626565
-19.6831064167 -3.7559404902 -17.0017057612
-15.5383406113 -14.2126339351 -15.0636279082
2.8412808425 -3.4142819392 0.0753861591
18.9567445312 0.2148914482 -7.6283317288
3.4090562282 -15.1407092906 5.4863909751
2.5100129088 0.942387255 -19.3424995746
-6.3906490622 -0.8921036847 -6.7682841473
-6.2395816743 9.1691988713 7.3276447664
-6.0684070476 3.4387472941 15.0375269156
9.62047044 17.2885388245 8.7324720445
8.4414424435 -0.2073206402 8.9954147388
11.1543151521 -6.206380083 -12.181103471
-8.3494133894 -8.2447491352 10.5014222854
-2.8326196591 -17.9274180041 6.1720036748
-2.4987555234 -5.3166110869 -9.2248593589
3.6957937492 19.2795658736 18.4523752487
-13.2377467171 14.0842376966 -5.9728563078
7.0554178034 2.4444577403 1.6508089602
8.7743643516 -20.798312464 6.520573549
18.7818251289 3.838266824 6.7706671466
10.9283564282 -0.8638252423 7.697020414
20.7672518639 15.1652627466 0.4378134897
-7.5909809818 5.8475724127 0.6600033248
-13.5636439084 -3.2686563948 -20.2871340811
-14.3513030595 21.522732148 -11.7406690136
-2.2215778365 -12.1067556713 -4.1474532654
17.5986097348 -8.3960548907 -2.0420314436
5.8983411927 21.8976760188 -6.0753837246
-7.3289735015 -0.1073660272 -2.305011597
2.6472878667 18.7049541786 10.3804078883
-10.1568964572 -4.8426493188 4.4739720063
-20.4384103345 17.3129370425 -16.8827759275
5.525946651 3.7493640597 -4.4875024103
-6.1316019861 1.3519445785 8.5396900424
-0.0537595575 4.9237127679 -1.2114174996
-33.2683199164 2.280171685 15.4673452662
-6.4338209 -11.0843451987 2.3570685038
-0.3962580897 32.7888901009 -11.8740554181
-18.8761536395 7.3585947701 -14.8230965883
19.2570468074 -12.3301947074 7.2454042504
3.7886519 9.9638687738 -6.3056817181
0.1492659608 6.9575676319 1.2947570335
-11.2406004697 -22.4355054158 -8.5084438727
-10.5538505658 9.302640061 20.0724774786
-0.8234612428 -21.4915651158 -2.6137418839
-13.5077298277 14.0362781936 1.363842107
-15.7361928232 -1.1244872668 -15.2623839963
14.4333637396 2.1368785107 14.8884999759
-11.0633282255 -6.8876149512 9.4141544948
-12.6042941213 18.7998761919 -13.9755881334
-14.8560910763 -0.2789502345 -12.5421524548
-7.1135520031 12.1727642318 -1.8483911346
-4.342675064 -23.273298893 -5.6903634918
31.7333143688 8.924666971 4.7492878118
-17.3321842853 -15.4227035724 17.3108020255
-18.8797614568 -0.8121266978 3.5265963834
-15.2692511344 14.5363169504 10.0785094884
-18.2955164162 3.8063484354 -9.6750949962
-5.3629778645 -6.451998811 -3.6547287506
1.0907015374 -3.0947966977 -15.4830106246
17.7034419162 -4.5523963092 -6.0545889378
-11.5777552328 -4.122756253 -2.4179888041
-28.4771800711 -3.0608262067 9.3992595815
-17.8123037789 -2.6160718668 -12.816046061
13.0262265372 -19.8161681728 -7.9012156181
3.9952385896 15.2832832859 -1.9196019382
3.3310255004 8.3442568153 5.8118980448
-28.2517499841 -3.1523540982 15.0886272983
-15.5966400884 -2.3009315433 0.2039574035
24.9249499052 -8.5780054672 -15.1971990342
2.8200966699 1.2483413515 -17.730573474
-19.0101069228 -34.3987854068 -0.647830874
3.0082601305 -23.315208157 2.3135679579
6.5345783141 8.838914809 -6.2820261059
-1.2857267955 5.978462635 -0.6814653593
7.3430836668 1.3490334996 4.4493619349
-20.3594133619 -6.1705398893 12.7655370592
-17.1840778738 -1.3910553279 13.4356923858
-5.8985517679 -7.14387857 21.7540335606
-7.4888772233 10.2720147064 -2.5464229626
-15.3819532074 -11.4653661241 11.7801018357
-21.483755705 0.6867531203 4.622569741
3.911623672 1.0087105286 1.7792670186
4.9414002514 -11.8683152079 3.9983042144
1.9551489908 -5.1320878586 6.1312290636
-17.6515603996 -1.9508835373 -7.6444978646
4.6121099492 1.1800037006 10.9451757482
13.9990326547 -2.4946093741 -6.6576340579
-2.8656671765 11.1093263721 -14.1568476543
-4.568464286 -6.4010097832 22.308548472
18.4282059129 -4.4648567043 22.3986304095
0.0022600036 -2.1669410859 6.6033253321
7.7038328089 0.4648707882 13.2794405255
-26.9273551021 -16.1140797213 9.4907412699
7.8606346188 20.2198913464 -1.340864574
-3.8600547062 5.6289981758 9.7897530442
2.5658538222 33.3308504251 6.2804883496
-8.3503007156 4.7315353864 1.6352069618
-8.1405709283 6.277346133 11.1822172176
-15.8021586518 2.4481311939 6.3090600149
-7.8807160108 -10.6337208473 -14.343490767
-3.0552789536 3.8448034268 7.6077580907
-17.9477118211 25.6018414269 -11.1270860159
-5.4870727948 -6.3837544723 -6.1214062465
-10.0281444754 15.6191761127 -2.103722307
9.2051906826 2.8723429539 1.9937547317
-2.1160514661 -2.5578956235 -1.2165208687
-12.5656169574 33.18198819 14.947620167
-2.4611794545 8.3751637204 -0.1356686133
-2.0729644753 -9.6293147202 -3.731040454
-14.9166743665 -9.2868256055 -1.2747175801
-0.9296537311 3.0686893222 17.8777301101
-6.5312996922 -9.3283145125 -5.3607933395
0.452120579 12.1834004675 -25.1645800066
14.5698318791 4.7257468518 0.5747998966
9.0144032683 -13.6870007233 -1.0471267646
-9.5081357454 -2.4717177752 7.2189037691
-14.7198318264 -5.3662271793 13.4462180325
21.7821352366 -5.1083052136 2.9058452439
-9.9344463083 6.9933178263 0.6886861272
1.2815401018 -0.5057646763 -9.167796119
2.0104790866 11.9367433449 -12.0039352983
-0.4696063428 -3.9975443749 15.5225539731
-0.8058016279 3.2955862175 2.1984929832
-25.5488473596 11.408723235 5.4036087653
-11.5677173551 4.4931266465 24.8285549989
-5.8173206409 -21.7572854981 7.967825403
-13.4494046637 -10.5655825202 -5.619404782
-11.736353043 9.3714215913 17.9999552887
-8.2409072181 -14.2077409336 0.537310814
-5.4961680073 0.3299003002 16.6354278793
11.3577351768 -7.2173333124 21.2613145927
-4.6109081851 -5.5868879901 -7.3014990534
7.5536382418 14.2010238553 -11.272673715
-9.6203509525 -5.4663029692 -6.1304367631
-9.3258250907 8.2403941779 15.9726954919
1.7868578148 -7.0598875025 12.6284603658
18.8684426406 2.1043976699 -19.8291074265
10.2244553281 -3.1575012826 -3.5290882909
-19.3222810755 1.6573391693 -2.5775377393
16.1913316502 15.503169403 2.0169912467
12.8207206302 18.2510719561 6.0149618093
4.8394494522 5.4676799386 2.3966343152
-13.9511851769 7.2648241147 -17.9382116752
2.9130223782 1.9388928422 -6.8662215896
-5.7586365786 7.0859159434 -16.876611876
-3.3109597605 9.98604328 9.8335996051
1.2543163467 -2.1521438379 -2.7834264718
2.0572847519 -4.6207419688 -5.9301990711
13.933073834 -16.8927703638 2.2049569756
29.4414064323 8.703661114 -1.39631938
-15.3991353726 -8.0867251584 -14.7318266623
4.9076724923 -7.5280941278 -28.7316766949
11.2020008997 1.2298926828 10.117882582
8.0110461744 -4.8177554588 -4.344827707
2.804666694 -2.0294293861 12.359522525
21.1942232464 -2.3492081216 -3.2628193206
9.7180464445 -16.9090144224 -18.5220219606
-1.9113468019 6.0743362061 26.2543953609
-4.3105435274 -11.2474598867 -2.7770949972
5.8571649047 21.2289106658 -7.8871639872
14.6696352739 7.3984931936 14.2858937898
-14.9411334453 10.9379003908 22.9461298794
-5.4727384238 17.3374034668 -4.3439892996
-9.5282889339 -7.8202496056 -4.0081890097
-19.9907814519 7.1250574571 12.8031447731
6.6071726119 -4.9021543206 20.2991545814
-17.4097850222 -0.5138519889 -7.3493894835
18.3975458759 -9.4583191201 -9.2903097976
-5.2977614559 26.9169229121 23.4684390951
2.2749067611 8.5522857398 -2.1010367748
-16.8698582846 -22.8338373551 2.1941878516
7.9605777971 2.7097091637 12.0617251494
5.7598194368 -16.6097879708 2.7154041609
-4.9591964911 9.2658205142 -5.2653779107
-19.9560616901 -0.3807449258 9.1403955962
-2.2868610861 -8.7285487929 3.4088082353
-4.5743972874 4.2882622962 -6.6472725066
5.1103663709 -1.0977367522 -25.056326723
12.6287989098 -12.1763225902 2.5570371289
16.715057147 16.9236198816 -7.2315286835
5.3362161501 -7.6356936624 -15.4049354676
8.0381847941 -10.752594798 4.4641673255
1.7297309414 1.4625435132 -23.6412643602
-4.544298773 2.3038493638 -1.2818353023
4.9818292694 26.235456869 8.6398503528
2.6617324549 3.1444329915 0.4026045961
17.239123552 0.8784437566 -2.1344193051
5.8137948374 0.0147914359 1.9916804657
6.4603327349 -3.7261718076 -7.941300237
-10.451088119 5.1044370381 -12.1179997062
3.7954732627 -1.7190599623 6.3845921308
6.5397640236 -3.6592934237 9.7759535724
12.3487401515 -14.536567908 0.0287445459
-3.7776057028 6.9027884438 -11.9068743503
-2.1713210996 11.7526032891 13.8517474198
1.3174061164 11.9064326104 1.5137322657
18.5306551845 3.1369717175 18.6237118804
0.9756069894 0.1805652183 -28.3356514601
-6.7634412743 1.5027635871 25.7026010445
7.4771625458 -4.9663318323 -3.9918313387
-14.096669176 17.3643435815 -1.6943362075
-10.9552098589 12.0311603443 -9.0788626597
13.5446146137 -4.524642782 -3.6526077316
-10.5697693473 12.7892618089 -7.261613373
3.5923238062 20.4617533993 -6.0593612491
-9.4808168898 8.5661861864 11.1295360988
-16.3301938465 4.2515874468 13.6917449277
3.1038256001 2.4270705476 1.9171595739
2.384758252 38.1041334936 -10.4081512304
6.4539184979 14.104203861 -1.4121321588
-1.2098023005 4.146592541 -12.284533463
-2.7965817808 1.8458235927 4.2578267803
8.8234006706 -1.872462194 -13.326751563
16.6901849364 30.8971139144 -0.0040247596
-6.4923452084 -24.3763638261 -5.2233323949
38.7876807897 -13.1601577935 14.6038335722
7.9088342103 -1.2841027868 3.2287561132
-0.4189287463 -3.366321757 -3.6618265749
14.5478287608 -14.5835219306 -0.2184730854
-12.2664275515 18.0634181126 4.301472567
13.4897493721 -26.9287882054 -13.1834618821
25.7432497171 5.8130377584 -13.5724763492
-8.4262660352 -25.7290138204 8.5257427299
5.31219342 -6.4683533752 0.1424460259
-15.3440744715 -10.0251241919 -24.3992206809
-19.8992551562 -14.5026353154 -9.3154709461
-22.2364146482 -0.2538374968 -8.030977998
-11.7160312333 -3.0887176268 1.8035623887
15.8276144087 -0.7573250149 21.0439289761
16.2511135085 -11.1435535602 -5.2734603258
-3.8188030565 -16.0652647642 11.1347645235
-1.7580733119 -30.3039405643 -8.9648701532
23.0689029195 -13.1060023891 1.0220036316
1.12802626 -5.3908417196 -2.0949778038
21.3304202 13.5793043828 -11.2138579341
-0.2846618408 0.2759165288 15.2264720273
15.414267662 4.4060466776 20.6861866922
-6.4491240662 1.3611387693 9.0191645435
-17.0713572912 16.3857766349 -6.6209559765
12.4884781779 4.0876223917 3.5003313474
0.1870617315 -4.9718732256 3.120457192
11.2013482821 -14.0840923779 -20.0518926899
12.0914767174 -7.6113922567 -10.6879400317
-8.6481793517 22.6394851478 -6.9503662979
11.4789222389 -18.5604190395 -18.6051489316
-0.8248657036 18.0532959382 4.337144751
17.3916558716 -0.3076897047 14.2770558624
-5.9428732406 -11.7829064255 1.0951362339
-4.9133812327 6.3917638791 10.5905551445
2.4823023158 -2.3666332327 -2.7223434544
23.8443406237 6.913426378 -6.533350561
2.8364997026 8.2746402338 10.8775775194
-5.3152240847 1.4565496999 12.1507595853
5.9918148825 10.117815628 0.3103924612
-8.7908550778 10.0415392445 -16.5368819216
1.842862569 3.9278213372 17.8767389765
-8.4385552432 -8.0970457753 16.5969062217
-4.7372503914 17.9277126629 -25.4373817391
-6.1784498824 12.1668392498 5.84765364
-1.4796507838 -3.5428313257 -1.7416126842
-4.8188818656 -7.2358046079 -4.5630040622
-3.2520875486 -13.3620559503 -29.1349130685
7.3256203383 25.1908066435 18.6475380615
-13.1923730839 9.3974534813 -8.6245134628
-5.1566046764 -19.0146377241 6.3479312193
-11.5974178071 4.4823684224 -5.142264769
-27.6822275542 -1.201245518 9.2772351437
10.6682549091 -6.9412801698 -26.048081187
-0.3785479844 5.1285739858 5.5397285781
3.9259047731 12.7974972462 -12.2019312428
-22.0969133132 8.5225827939 7.2800486953
-3.7615236188 -37.3360028611 11.6393906016
-14.9685928488 13.3059506189 6.1206839477
19.2300416403 15.8468541043 9.878819173
22.7363869722 -17.1416248064 -6.621600533
-7.3125685579 -9.8261079034 10.6275287161
-1.20340853 -5.3486696354 9.9234216454
-15.8542927111 10.8959577996 -12.9753759218
-2.8444639999 1.7534134664 -4.7577061034
18.6026776016 9.0259420957 13.7454064064
-6.0352498083 1.6123645118 -1.7423238892
-0.7522433035 -20.4428441735 -2.094025485
-15.9808616941 21.9941321326 -2.7742680028
-3.8476247914 3.3935885065 -11.9072880763
1.1389337348 9.1279652673 -5.7122344998
1.5816280262 -0.8964263427 -4.4818384688
18.1408852279 35.6797996591 9.3206832105
15.2727345706 -16.27004153 -2.339412145
-1.5266088105 -7.06259627 21.3337277493
-5.5403229792 7.4228755093 4.8838692527
-12.6040002868 16.3020427449 -1.265111978
13.6027990841 5.9421503151 -5.3135109332
3.0523468847 -16.8457610476 2.1206256846
-2.5783103669 -8.1456466781 -4.6078824379
17.2827243541 5.8054569069 6.605145779
1.4991453108 19.1675942865 -11.4622354481
2.0849055033 -7.0224888859 5.094915422
-17.2375664535 -9.808530107 4.2695340293
-17.6378885538 -5.1443967793 17.2756366664
-20.9291540522 18.3177926423 -1.722494537
13.0859991945 3.296992614 7.1759877673
3.7791402384 12.3041477493 12.0270218401
7.0872605423 -3.1387135093 -7.6903617018
-15.3451503974 -3.4538573044 -22.348517686
0.7198091548 -3.5740564489 15.843163127
-0.6766837435 -7.3131313702 9.9881715324
-15.9543465987 -18.5353497714 -16.9707729592
5.3501374863 -11.8136686375 -8.4199980286
9.0193739947 3.1627477931 -7.38614613
13.7582060768 11.4280603145 -4.7031818382
-4.236243981 -6.7364240386 2.1077005227
-5.25871438 -27.9999074993 -2.7867385995
-8.1794678483 2.7780691764 30.6579148301
2.9410788913 -5.5817450097 20.1600043132
-21.9566005898 -0.7153029131 -22.62123789
1.3511263029 -5.9664853424 6.7193845428
-7.8169117418 -10.1160337432 -2.4054411335
14.1526257927 0.2392234119 15.5508481682
12.2353175998 -7.5332955952 -5.1330855917
-4.666029174 17.7546981963 2.2109097538
22.5412782588 -8.8345667109 -5.6136293094
14.5221064331 -6.0936942732 5.6835879688
20.9878239291 -7.4332617289 9.7429321873
-26.1991600639 29.1593899982 -6.1605031254
-9.1256258385 6.7012214936 -15.0121232547
9.7653100544 1.2016653238 7.1408929776
4.9872238438 -27.2419213543 2.4768548455
-6.4458149665 2.4279253969 5.4053477545
4.2896593061 -4.3700534659 -14.6641958198
-9.0127428685 -6.9464754296 17.9617873959
-13.2167975574 1.8235254644 11.9437673414
1.754357741 -5.9724997261 10.8091903589
4.2535634844 -12.9942463306 10.0182792512
15.9623378527 3.7550373919 11.9233758675
-5.8878122445 7.0751928868 12.0494359616
11.4453178953 3.3185286785 3.348389154
-14.8031378735 1.5432516191 3.8439168613
-12.6375594012 -16.0606289662 -15.8118556304
5.8195146139 -20.3612754624 2.9117607718
1.5430901022 2.415130236 -15.6653439128
-12.6059494567 -7.8319051945 5.6691162171
4.5544114427 20.0683516026 -13.7182183638
-11.6480711937 1.8442593359 -9.8029915366
-9.0043991129 -18.8687077353 0.7581144401
4.1312061947 17.1291248275 -0.6778693353
5.3953435937 0.0859996929 3.1116743048
-17.086514628 -8.5957642937 -4.2699307031
2.3379139474 -9.5999561481 0.3066503263
9.1467875228 3.4918582792 12.5457717082
1.0305858579 -19.775087688 5.9799964757
-0.9342402611 -8.8274803144 6.7690479838
-8.187353135 2.3213466638 1.2398527201
13.2631954094 0.5220369818 5.3256706838
-20.5286201185 12.6849748109 -6.8783043264
-12.8704837951 14.5828970556 1.2535516071
-20.7011384813 10.4031674268 8.3252986055
7.642748347 -8.4687932255 4.0916616118
3.8919504114 6.7204573744 16.4287502343
-1.7950759512 -8.4523114505 0.9885133946
9.9594163307 -13.6412414111 6.4408195027
2.8702533813 1.5834104847 0.3123631672
5.0956770664 -19.9899111233 -7.1051116147
13.7066555882 -0.2240462761 11.2256938562
9.8366153795 7.6270614486 -14.0693661888
15.4743497782 -13.8476081401 -3.0077536026
5.4287637664 -3.7431296628 11.1322950504
-5.2092247937 -5.6590105376 -7.0420485952
2.585306552 6.2126562288 7.2181871327
-1.4869711432 16.6025578892 -3.6661614466
24.8553755954 1.9632232241 -9.6344800435
6.8407263128 -14.7235923556 19.8067388264
-15.8843548473 5.0666320364 4.2863369063
1.250634001 5.9937023495 -2.756268521
16.6143471223 -19.5382737296 -17.5069646854
3.555661987 -10.5268856506 -4.1401090863
4.2452916456 -11.2256690679 -21.4939154375
-2.9369630668 -10.2556126327 -11.0123038139
2.8154477718 11.7928212685 -14.1736950905
-6.5207671418 -19.0680519713 9.6793766379
-4.2411047294 -4.2971820004 -8.5057015952
-11.0577949273 -1.7913536957 16.6202700534
15.4494070236 -21.014186012 -5.6171710622
-4.1732170536 6.7764526005 -8.1397549935
7.6091392956 -7.2130622144 4.0372533807
-6.0665588003 -0.9272506205 1.8238503181
-19.070568278 3.0999408428 6.7581914931
-9.03365265 5.1950016175 -3.342765349
-24.449506451 5.9067355657 -10.3466975696
-9.7548102682 9.9697155733 4.7738699388
14.8957452029 -7.238245091 21.026884426
-10.1134358607 10.3817569466 11.5109621462
-5.4018213982 9.7961701115 -17.7949050835
32.0713152853 -2.7568774985 -12.2710881256
21.1315903164 -10.4852903517 2.8645293265
2.250955276 -13.3666352706 -0.0241509442
-1.2615454285 -15.6534804232 -27.4290968971
1.5524265848 -3.8800404601 -1.7395008844
0.5170004334 -20.6091808206 -2.5330052646
-4.9049809495 15.4634279622 18.5486511555
12.5347415477 -3.6237473333 2.4760094328
-7.6515686995 4.7036908078 -11.8279211928
-14.9128629275 17.4140793787 -10.5993532771
-22.5527894428 3.2245529253 17.0784522005
18.6831947782 -6.6608503141 15.3068477976
-9.0238400555 -2.0111405612 -25.0458817281
-15.5295328611 -0.5309901128 -0.8867025454
5.2756769728 1.0078688271 16.6888061571
-2.4815236627 -9.9887301397 -18.98276359
1.0197452719 18.2301392948 -10.1552365017
-0.9610117778 19.8004102399 -0.6548274338
-4.2950073073 -7.1478738335 -10.4384456919
-8.3363378 22.3916703146 -34.3593399469
-16.5721607324 0.7171950678 -15.125740199
1.6585336117 8.7087379254 -20.6266617506
-9.4992553431 5.5767728602 7.0501794376
-5.5372581562 -38.5262260078 15.4005909489
-6.481564696 27.4147718998 12.8462904627
1.66523405 5.6829180008 -9.6550623301
-14.0108568255 7.5434709157 -7.1901704176
17.3072918431 -0.753757304 22.1347789636
14.449391215 6.1453459336 3.7380818772
-24.3733073228 -1.4550743999 17.7614921637
-10.3323480545 -3.9538767716 11.4066418548
19.2744383983 -11.036307118 -15.4479044202
-10.2086754923 -3.9807517438 16.7464334962
2.6633956819 -15.4681431556 -3.3248986011
15.7580980497 15.2187126513 -6.5916314637
8.9882886267 -13.9622801955 11.0484307012
8.3469501224 -21.1303138927 -12.113726393
21.1197376888 -5.683325189 21.6908190667
-16.7485189568 3.9310653421 -5.7350074393
-1.1500601779 -1.9045847182 -17.0401435874
-3.226690541 -3.0015811848 9.2562638422
-10.9926556946 12.4331104677 -9.8748145722
9.3238171767 -19.4729847014 -0.7054257942
-10.8838615096 -0.8918702081 4.3479071149
-22.5704876897 -2.2414453213 -9.832558748
-4.8289119009 -5.9713762715 12.9964602656
12.511125832 -11.5283452112 -6.1250796407
3.3306761805 6.2338252437 -3.9315791815
-8.3349492972 0.7065476356 2.4267877468
15.6247617238 -2.510665522 -9.9616617948
-9.4884247724 12.4719354055 1.0826979555
5.6710218982 -3.5352005586 7.6729872814
16.9806877546 -11.8093332094 -9.3104638102
-0.7554507135 2.8130999551 -12.9414908924
15.7296469318 -1.4143014418 18.438154872
-9.0957902097 9.1067491423 -9.992508793
6.8694972235 -4.1603765811 10.0184738632
10.5743116454 -5.3126103541 -0.6340885863
-1.9858081056 11.0871381191 22.2444893965
3.9586568848 18.6946494748 7.7077992834
-8.1026463673 16.3694201185 6.3519099953
1.3068788888 -11.5222259753 4.6606308761
17.7200188424 -15.7569912346 -0.1446834538
-21.4741287896 -17.7125916833 3.5561200624
5.0098600061 1.6733598535 8.8623811234
-3.8954886014 2.5516725314 -1.2411368023
12.9405914511 0.262216321 -14.0159594026
19.307653717 -1.1727628466 16.4237036888
-13.928933496 -13.4149664413 -15.5858835587
5.2571551502 5.0529108828 2.3524783341
-12.9895207105 4.7153885801 1.7877954152
-7.5041815216 4.8005241851 -7.9068794796
-16.7733787471 6.512317922 -5.3334131477
1.8676796485 -5.3921801789 -1.67580674
-6.0403395852 -5.9421966178 -4.4522001057
12.4616241021 5.3622654743 -8.7150464151
-5.3849223366 -17.6903105004 -2.5255840567
-2.0637494264 -1.8698767039 0.8413364849
-4.4171604659 -5.4023602513 -15.4739350233
10.2528510495 -7.5663954819 18.6522622856
-17.5537434089 -9.5900452778 -5.119959988
-26.3451756952 -6.724191888 1.8548558631
7.9235051163 -6.3367736477 11.5507137157
5.7906279682 -3.0541109623 0.7671012181
10.9538637779 2.1619223718 4.1102359651
10.6872130765 12.5994507785 7.5144395735
4.6093988592 -4.776157241 4.3158554226
4.4322464916 15.18662008 -13.3238689575
1.1971627529 4.9499538346 16.4486445949
-8.0544751072 21.6495664642 3.183752214
30.0622567438 -11.5848940367 7.7084237188
-15.6245375136 -31.4543793155 -16.3664899651
-11.9190565744 -19.8452342348 -9.2069578887
10.7495454143 3.9128159473 3.4072966511
-5.0928458764 5.8051340348 8.6770379242
0.543535203 0.1494934003 19.2948613647
7.0645270615 6.9455769405 -24.8979262221
0.0959655796 -16.7692351065 -10.955596112
11.3690088898 6.2682984567 -5.7406774601
3.001407267 2.2293123218 11.2557051711
4.5342396065 1.6176322131 1.7931920184
2.4227646288 -9.99866891 -16.8906859377
-9.9873773901 -22.9719681985 9.546132994
-15.8564804107 -11.4649765459 12.2845134512
2.3048683132 7.2471905124 -0.5585165967
15.7374775936 15.3759510683 2.7908178605
0.9165368483 -8.3408461794 16.5170566197
10.5092684766 -1.9460475051 7.2221879963
22.4640082717 -9.5280269005 17.4678351912
-1.410935511 -7.7806816946 -29.7743537996
-5.2762325512 -0.506339239 -1.8860628613
3.491200399 -3.628429731 -8.4498901678
-17.590547591 -2.2221172561 -0.7675728157
4.9681943141 12.5534135614 -8.7302552042
39.2781344399 -5.8552472883 1.5743126816
-4.3375461258 4.8568587317 5.3055109579
10.0913362566 9.0318051111 -0.5888385777
10.5493319414 -1.9974464327 29.2997817307
-12.174046455 1.5113383232 4.4689550018
2.6556211318 18.4793864813 -2.7839404535
1.6059066181 2.2554691622 -10.8491465718
16.1988265737 -17.7469894482 -16.9243131333
10.2106809484 -6.88570587 -28.7766287627
1.2002354412 -1.2934882971 -1.965935927
-3.4191397822 -7.0515217275 -9.1694912736
9.5458094364 -8.1040365061 18.7104759759
-16.4972506506 23.8934362064 -4.5263271147
-15.0826651867 -0.2117844865 10.4783143987
-5.5156232453 4.2860089755 -2.5454339861
14.9634499256 -11.4543499855 -5.2160410218
-20.2025875238 -1.5226607625 -14.0322178386
-17.3567016981 0.5816995721 11.9944428905
3.2339300017 -4.2356438052 -11.9291560249
2.9189216972 -5.1093844163 -9.8212842556
-19.7693379983 6.2614464537 -2.810282926
-8.5297897218 -12.2860155758 -15.5011532311
7.9772814689 -5.9270708681 17.2139221299
12.2070190319 -5.4805533634 2.0347618806
-0.2671571623 -10.0219116255 5.1393291912
0.6037271746 -3.942514474 12.5518001453
2.6119180115 -10.2863192331 -0.2909038075
1.6519287315 -19.5300247875 12.6471630095
4.0640773677 2.0755060057 -26.2601462606
-0.7309971003 17.9568383284 7.2516536731
-7.7154783954 -5.1988882761 -17.5891621376
-8.1420838918 -3.1635271177 4.2244102965
12.348231685 -22.2948071269 -27.4954588556
17.185362577 7.3919677163 -13.684142137
5.2233517293 -5.1175190412 -12.3411510931
3.7254162707 2.509523493 -19.0724833941
7.5413201061 8.3314112167 -2.2037065454
-20.926929221 -5.4470430466 -3.6346592795
-2.5977763839 -0.1686458387 -10.8564222443
10.5728990425 -11.6184204536 4.4320475181
9.4903866604 -7.0616871552 8.4521501755
1.7502680225 9.1650657914 12.1127315382
-9.7845098729 8.4484770046 34.0478141653
-6.7061725124 -18.7313510033 30.8353348882
-3.3713691185 -6.2772601839 -9.4453777998
-20.417156116 -6.0008190706 0.2672683734
1.1305210487 8.784304957 11.307195195
12.0826521875 -10.599110184 -25.1718711923
-10.1652343362 -15.1930418262 22.2557599366
-2.6225806367 1.1163578039 -2.7271954743
-10.9105581332 -19.5987247173 -2.5053938069
-11.8553204475 -3.7013072397 -10.41837874
-2.0442760723 -14.5656262309 -5.5171721646
-9.2937707872 -9.0608704509 12.2555828669
-1.558530319 5.2638658885 -6.2085404442
7.3654809064 4.3098425295 8.0527074361
-6.6045683748 3.4698713012 18.6325210772
-3.2835195935 -5.5099307396 8.6060367139
-23.0477858346 -9.0776129346 -6.0864300607
-11.4216597877 -16.6382846722 1.1193393244
-21.8490470361 -18.2020727557 3.70712887
-5.2827011193 -2.1475280869 6.4881207798
-9.298512447 1.0683738546 -18.3448039097
-17.188940115 14.0716125449 16.6901969825
-2.1402309128 15.6003348177 -9.6461191442
-11.6251174056 0.7637046046 -7.4346173554
4.3174054429 -5.2137128122 1.3233084269
10.0355009255 -9.0368791441 21.3359546304
-14.6267817415 4.667836865 -15.0754431487
-0.3048561636 -0.5318499233 7.3295805851
6.7639199604 -2.6688845294 -5.0056667807
1.4713623523 0.2855494849 -8.2195349018
8.8924804915 6.3475619993 1.9233745804
-0.7228566007 -6.7821298616 -15.6779382282
0.6197019321 6.7638895727 -8.379570829
4.1974238806 -10.3813558454 -1.6002599593
-30.0301971209 4.32352702 -4.8546327714
6.1593790675 6.4563047543 31.8619269724
-2.4620552725 -1.0742333843 12.9111254768
-0.0666012573 -1.0113382411 0.49792895
0.9590866109 0.0640864703 4.6582751323
3.9300615222 -1.3161458429 6.933788774
-9.9507498335 -2.5295739937 -6.2295512803
-3.0551228426 1.5341593566 17.5691013619
-7.3727859661 -12.5969565226 12.779877854
19.6860687709 -14.0668799551 7.093245872
5.6426927782 7.5015767001 -2.2842266031
-14.0779849106 -5.3279314578 -2.070098443
9.1773606601 -2.6155238228 5.640333031
-9.6659715639 -11.7026924493 -8.0300460024
9.6315263728 -10.063726405 0.2899899066
49.405635932 3.6846441906 8.4884175313
-4.6121589776 9.8447583631 -12.5019480881
0.7636545479 10.3625951677 -3.9141139767
7.0841229867 4.0623314067 -2.0028292584
-2.5455194976 -0.5691148522 3.9531654158
19.0160323646 0.1963808178 7.6320795611
-22.7687765433 -1.7246443565 -4.640906621
-9.2622681804 21.508744136 -6.8630501875
-7.9317128766 8.4060020936 -0.6119423414
31.1488091644 8.9500124844 1.9627838749
-12.2740261887 14.6850554157 -7.4510871615
-0.666380128 -23.9565956708 27.2370605006
7.9721298342 -18.6368412564 4.9529279603
5.0755012796 -1.3242816817 -6.9582673705
-25.704673438 -9.8437507294 2.8548280345
-7.5011583324 -3.5952376024 -5.2775710915
7.094895813 -11.7246904579 -9.3766244096
-8.9744938451 13.568348501 11.1368261935
-9.5364961314 -11.3063847486 20.9186069531
8.6596358634 -5.3630184374 -11.8449170863
-5.3123471005 12.1292908232 7.1525568633
-2.6783098282 2.847423782 -9.7592321793
6.3697235437 -15.5517367452 0.7541486867
-11.9761420882 -14.7655014086 -1.0398224638
-14.0389330082 -26.0720288107 -1.9759950509
0.7415002377 15.2818450533 10.4964568327
16.0708219838 -8.5320122313 6.719439696
-3.1426814437 -7.9504635456 -23.8200410438
-19.8363501491 -9.8119788681 0.0561202749
2.465962155 13.6304215843 -3.1319085045
13.5320110258 3.0994737259 27.5028431041
-1.8543379755 -10.7648277616 21.6117808298
-7.6848877838 17.4057415533 15.9665081334
-8.7596699601 4.6477700667 -0.9997433447
5.082626841 21.244929274 12.8656263266
-9.104431653 18.5247750032 2.3491090842
-35.1911090482 3.2974374417 -6.1419651445
22.8059738132 18.3311735704 -2.4448129577
5.1509067074 -1.8605786337 -19.5594622798
-4.4516800287 18.6768042844 -15.6044315225
29.6705800747 -23.4358593559 9.5080729436
-4.1102585845 -0.9540787813 -16.2267024148
-17.0995405402 -7.6144321824 -13.4247124022
-4.5268630726 -29.0504800212 4.5583923355
5.4291474527 -5.5304071242 5.2201096679
15.5625876919 7.8130726825 8.0574099253
3.3957178636 0.409909995 9.9280071176
3.244426241 -14.843791218 -2.1787444302
1.0416720303 2.2019535053 -16.2486517326
-22.566079057 -2.8618884667 -1.240751531
9.1298432372 6.4997658502 18.584579402
-14.2840062058 4.7897258021 -3.5579028213
-5.9577540793 13.8515732256 24.2661546186
0.4917879422 -16.9445659022 10.2510327551
5.3780969578 7.2013887548 -2.5720552388
-21.0562114134 4.0381807309 3.7887553614
12.312667546 0.8135226217 -3.5433089361
1.916023725 3.7694899597 -8.2611206957
9.6672768463 19.9037382264 8.0139527472
-3.9718687982 6.7675488067 19.1691308613
-9.8078634636 -9.5151855223 19.3697838694
-13.4394936432 -13.3690830009 -2.0593626539
-15.9967357994 -2.7225777576 -17.6359631033
13.9897617353 -9.5940510804 12.8169352928
2.9068396731 4.9752705027 -5.1552311897
-6.022214866 4.8475191123 2.0520318224
-1.07056213 -11.3265629508 -8.7719575411
3.1085145241 -4.1470482194 9.6988933581
27.2791876327 3.7474538117 -8.7936541208
26.7425970386 2.576665551 2.0252421898
16.1011617901 -6.0061592956 0.8835934156
-0.2123761954 8.3369586136 -14.1830273902
4.8506837278 22.9478844827 -15.5956599631
13.9534626272 19.3665300603 0.9310164207
16.827377116 -14.351990217 -1.4874833339
-7.3900048731 -1.9503237878 -13.9453086781
0.4029731939 -9.2632788955 -0.3652077018
7.2220631428 16.4439625985 10.2421343995
11.3480173608 -0.9208295267 -3.9098936786
-21.8780605659 7.2816505577 -2.1767754287
-1.8137193482 2.2597057251 -12.3314540143
-1.6716243643 -17.8626064414 -2.1337686821
19.8526187514 18.4119268961 -7.5664298748
12.9023193192 1.6274781073 -18.5184573158
12.0686403627 -5.7210367993 17.7715228116
-3.877338313 0.0885936938 -6.5313472922
-0.8953749924 14.1886323604 -0.8294553689
24.6928822802 7.8441597195 16.3739144765
-7.9883051546 0.7486914925 5.249073175
22.306550983 2.2674471126 17.9283907543
16.3549396511 11.5273666978 2.4223303684
-17.430321813 -3.6721250673 -1.8720276974
-5.9660689781 -14.4950847319 -18.8580832884
-6.6682080643 -4.3480078343 -6.3502486267
4.3727858821 -7.1862223811 34.71958691
3.7552093909 3.0842438077 -8.9998108212
14.2272332526 12.7990230397 -4.3653531063
13.2152084018 -6.0175260022 9.4428218317
-21.9901221632 -8.6038859106 -2.2006757016
17.7119489495 11.4984155298 0.8450260149
-0.9892428568 7.0077973046 -11.8670245259
3.8686771113 3.1831486301 10.148488499
4.1419576239 3.8409288813 1.1842061065
3.2282718684 14.133104807 9.5700242015
-9.2670321484 1.0835895377 -1.4709477041
15.4899384959 -2.4482137968 3.4507822328
4.8979020487 0.8015449831 -15.6493559118
-8.7390373457 4.7131857312 6.5395684772
6.3786958246 -6.0988897142 -5.0954909826
1.6629367806 -10.5589883289 19.4297234859
-12.895038774 -10.83939955 -4.2584883181
-3.6090604789 11.9715165687 -11.3684789759
-3.9692347633 -4.6961347736 -10.2472634843
-13.0609217336 7.3488237332 11.2585768321
-21.0156047282 0.6648098108 -1.3581023355
8.0826737243 -9.7939008454 9.7314137061
-3.068368645 -2.0221637151 -12.4079133463
-5.8707496254 -26.9461536156 5.2133187002
-3.8107453654 -4.9997183046 -1.4893795494
-16.2820154879 12.7533489415 17.045457228
-14.6508771564 -4.5618411711 5.6378380706
-18.7348012163 -22.3267496251 -10.4641811998
-6.4992337688 3.4030965849 18.7285139391
6.3758687677 3.6228123227 3.6407903472
-2.8488376162 -2.6598130161 -13.278578301
-7.869468241 -8.0772690624 27.3502148409
11.0098915133 -28.7400247655 -3.8519449296
-3.7643751253 10.2473091959 -9.1028725586
12.9925965279 3.1559449401 15.7358205782
29.5885144914 27.2350619871 4.2566010028
11.2454537518 -3.0041599432 -4.2246485367
20.7369115639 2.4011905319 8.2807816806
0.8310050313 5.505530991 17.563409009
1.7008982582 1.2007085578 1.5865384626
4.4138483874 -2.9669474803 9.0697955497
11.6659130099 4.7157800451 1.4355894416
2.7533855486 -1.1507009731 6.98739298
-3.0089302154 14.826994353 -19.1291165886
7.1120028204 2.1678826492 -6.3833056891
-28.3173048641 2.1195472785 -8.3109199298
-0.1648726009 1.3928616615 -5.0142901421
11.3644554253 -21.9242742081 -2.6442321925
14.1015202479 -4.1428198625 2.6962170129
8.658511468 -5.7449443028 8.5125876578
7.183270242 15.7350148229 9.9780331252
-0.0641150667 -0.6661530737 -7.3866412565
9.1723132074 -11.4119471198 4.0987368023
-0.3235888645 -17.0246837814 -10.4071383552
-6.2161883329 -4.2223523135 -1.3444229159
2.8841683826 -1.290875838 8.9160520051
-9.9347883802 -3.8729455122 -16.6049470439
19.9429077918 15.0926828192 14.2448729171
-14.1387361349 13.8618645953 -7.0585739078
4.6713798045 -1.1179943762 -12.9724525158
-32.839150583 -11.5990910201 12.5945014933
-12.4121508874 17.3603929468 -8.6954114314
-4.4658688785 -30.3228131471 -6.7875072612
-11.4224847906 -4.1726746786 -1.2305597171
23.2755660316 -0.4630381327 4.6902305001
-16.6199019722 -0.6546374122 14.5033996227
5.216795248 13.7524546529 7.850322558
4.4205143004 -14.698437301 11.6746012486
21.7675515055 12.2917602183 20.4842662256
12.7190678314 9.2310001838 0.2812188287
-4.9698557856 10.3032314332 0.4300824949
3.5014760375 4.5760920036 6.4622283648
13.657069569 7.7564419182 -8.1219286735
10.1494853868 6.8050095777 -9.5623227464
-0.8917812333 15.895011247 -20.8712664013
5.2327959537 -5.5533086285 14.5845425954
8.735139636 -2.9548143086 -15.1620975384
10.9291676935 2.6712199136 -9.6464781799
14.8205808419 -13.5085436394 -13.9965240818
-2.5143329983 -5.4132439584 -0.2431618619
11.9236616877 -22.2138700919 3.8155108588
-3.4806617374 3.0669539148 -13.9838734869
13.2090370299 -6.9241346582 -18.2533403789
-1.7598974194 7.4494476581 -4.0111374897
-5.6609458689 18.0909986873 12.5734532598
15.1408583049 -8.6305845736 -2.276163705
21.2534306615 -6.135014888 -9.3534804152
-9.3697861692 -1.7414636188 -4.6429098644
13.6177406298 -1.9849958752 -20.241560381
-11.0543084669 20.4881873403 -17.8026047965
-15.4387382049 -0.1119605973 -4.0454817271
-17.7481874848 -24.8979287781 -9.9781819372
13.1111452112 -5.2753929886 -11.1814392278
-8.01190461 -6.1713589133 -2.3614132925
-4.8501181423 5.9957186442 -3.3988413151
-34.8502908329 -8.1350478532 22.8639444703
12.5329089462 -14.3387529069 30.0153268776
-17.9389754455 14.5795057155 -1.6699257378
22.7831561957 -13.6307671665 -2.5187977725
0.7803564152 15.097537186 -17.6302153076
-4.2382097004 7.2595399873 17.5654759055
-8.6316031299 16.8031195068 -21.8839205659
-4.6914949057 4.6802842581 -4.9190254399
17.376958769 -5.2102095167 -6.6383406625
6.5724657773 -11.5210964715 18.9528196326
0.433592687 14.8064119357 -0.2514279468
13.7243146785 -5.4252770613 16.5529858118
20.2507056089 0.939003752 2.6313565573
0.6475856656 4.5143893062 17.7695692118
-2.7029310842 -8.4788085505 2.4420771171
13.8578538845 6.921116275 -5.3941494367
-3.860375911 -3.3393994738 3.8892111314
12.2315393033 -1.1898628201 14.9040647862
-28.1434896742 7.3856573665 7.9326193061
-4.533324385 13.0771871074 2.6329131678
9.4968638832 11.4136338752 -1.1018379033
-3.770995631 -9.6760439031 -23.6586582208
-1.832315968 -7.2992960394 -0.6760932123
10.78031863 13.4687801291 -0.3014486366
-16.0290469561 21.1751353063 -16.9273814543
6.516957052 12.9895329356 -24.5352927663
-13.6176125826 5.5760033086 -5.6340557561
24.8817705662 -8.4869017627 -4.7929015891
4.5242315253 2.5001217301 4.9353533085
10.4523069475 -15.2221204027 19.3369376034
-4.021680017 15.3181560738 -7.8339555318
8.8074401804 8.5534765556 21.569472127
-8.6781458159 -11.1224355862 -8.5188909571
10.2487824753 4.6785432142 6.061643534
2.0184771977 5.5017903464 -9.0490974994
-2.2230452928 -11.8138298302 0.083470598
7.6049760311 -2.9102693251 8.2027072222
2.3287489106 -9.6987382609 -11.536210374
10.2420256763 1.5132438403 -24.396309895
5.927721603 -7.7094177792 -1.1438331633
-12.7946250109 -20.5429762478 4.6597139039
-18.2562476322 -24.7306381018 8.988758951
-9.3929716996 5.6399892402 -2.1438553073
28.4463423536 -21.196907443 11.6426004608
18.5865293557 -4.4194668086 -3.6198749313
1.5761570438 -0.1501967721 -6.7276030216
-4.3653003628 13.2512278297 9.4084120138
5.8956707938 5.7330951153 -11.8832019581
5.6617024093 14.0313958401 9.8073323795
-16.3216166211 4.0601814852 -2.1874585985
-10.7393854619 1.766472654 -11.2811267247
5.0676418762 2.7098022666 -10.5930100653
-8.0743828767 1.5571438468 -2.5241844245
-8.4156479582 -17.6720579007 6.4444616688
8.7234338501 -11.1214536322 11.9795868454
-22.6351427688 -5.4811805163 25.6672947881
-0.181584848 6.0658633994 17.3991349828
16.0499795256 -1.4946569236 -9.1850353803
-9.2036931924 12.7338684535 2.4228635391
11.610039401 2.272609485 10.2506276296
4.0239997727 -8.1947420739 -20.76747162
5.4360013975 1.0218159653 -21.7097889611
-0.5398008898 11.1915414487 -8.2485013331
4.5740682122 3.1864901043 1.4100977512
-5.8792571726 -6.3193501601 -1.8831991827
17.517726424 9.8735998504 -8.1738496864
-8.2648511464 -2.2534925024 -17.4775394521
0.6141727822 -3.4237983417 7.4958902805
-6.4665098661 -0.282121751 -1.0369192123
6.2962640877 7.4086024005 -2.8657904179
15.7317681762 6.7057184543 -5.1879004146
-3.939918127 15.1315424523 -11.5389603459
-6.2473597864 19.6633039175 20.1625422561
3.7125283768 12.4759752521 -23.3434751014
22.1712930365 9.046604683 12.8211749372
-1.7282287483 6.6548964663 -11.0898134161
1.241953754 9.7066624911 -14.5383057068
11.8698789744 3.0375555935 7.5695764751
-0.0362562242 -6.6369400913 -8.7383142691
15.6100057977 3.8283083685 7.4063853337
0.3836002654 -19.5393991354 -15.5495712745
11.3163337718 2.4588100203 -5.1033733179
14.0640639913 6.1412508781 -5.0686157504
32.2182203304 20.5877484206 19.7142149026
2.5061644715 -10.2181933855 13.0436545955
33.2736499503 2.0433530853 1.2394138257
-10.8650995371 6.4150486387 13.5269385231
-8.4333007429 8.6659438162 12.3465812121
-17.5359851312 -0.364253455 -18.7475298666
-3.799917911 6.7974728785 1.4466668705
-9.1999026444 7.7969935303 -8.7838036427
-19.6597209763 -15.3701398591 1.7459188539
5.5036739751 -7.185816073 4.5462913774
-9.8672476748 -10.7564096902 -3.8861474947
-4.8127638501 -10.1226235916 1.2004755098
-16.7546814027 -17.1158162856 -1.4808154858
-6.490695528 0.8622481073 -25.2045425793
-1.2377829234 -7.1156746186 3.7361663256
-14.6344022643 39.5330750691 7.8795779493
6.2880698245 5.0475384527 8.5187019872
-7.2454825853 21.57668496 7.9129068081
13.3431738928 7.0652123795 8.6055342623
8.5643411974 -27.2260646107 0.9061722834
-5.7501532199 1.9158226857 -4.1298448456
5.5609250952 -1.5139153406 4.6277495101
-0.4969980379 13.5430846308 5.8239585315
4.5720836293 17.4143484524 10.3295052708
10.3057745021 26.4590285392 -8.2055433099
16.301055814 4.9147363532 5.2637064649
4.4493332728 -0.5828153047 13.3657816442
-13.5637510036 1.6988089652 -6.3768471777
30.3850818437 -13.3383920108 -0.6923131638
1.8962313851 -8.2271320639 3.9755033226
-2.8856296667 -0.4437637232 -7.3730250943
14.2438631061 -6.8979775812 8.7497265904
4.9356706137 -10.857459693 -1.2654826097
18.0775545978 -18.9693599031 1.7045121459
18.2404681156 -6.7597958092 6.8801534409
8.5415199306 4.6812101345 -1.2933769131
-9.8969025845 35.4135956939 9.7659255479
-3.4248477907 -15.2985350384 -17.2386815702
-11.0620988221 9.9449594203 0.613651016
4.4359324521 -1.7381812447 16.201584972
-8.0873135721 -6.8247068634 -3.9240002157
5.4452130361 -4.9106815386 -16.8511994321
3.7577346715 21.3161553997 -3.3260118766
9.2695497619 30.5594376495 -2.5534775651
16.9695781616 -0.8066411851 6.3871514399
-3.2730261731 5.7548040522 -6.2783503648
-12.5352943643 11.665587065 15.714311604
-31.7445097337 10.4273252488 -27.1573901899
-18.0912967609 3.4744420132 -7.282060035
-4.0894672165 -9.16718572 -12.6317851429
11.5336908446 -11.5423250594 3.4364803615
11.7909286581 0.5276075398 2.8061019444
-11.0587000173 -18.2032019594 4.4812888091
7.036022626 8.904881393 14.5357603363
12.1706095768 -11.9258068922 -12.706486706
1.7179231263 -15.9814609786 -1.4818801719
13.8557317199 -1.734091607 -2.6498906181
12.9564078926 -10.7529439185 -16.2738750355
-7.0130570644 -23.6017983457 -4.9474267431
35.4980240925 -2.4657607072 19.4440720154
9.1899903507 -29.0336511766 7.0817636016
-27.7661751003 15.017565682 -8.2959225799
6.1264206455 3.2323794072 -6.2048083734
23.3773238015 17.85517784 -8.9548505341
10.619162222 -13.8181022091 17.2749744204
-18.1029011345 -10.3604085223 1.0244971523
12.2750813018 3.7804863186 -9.9931462183
-0.5633850385 2.2974610067 8.6653365438
-1.3928325793 2.3304022685 11.2381361074
9.63252711 -6.0409880186 -9.1426581008
-22.0639279929 8.7932238734 9.0585951311
-24.8352778601 1.2475877429 3.2520927184
-6.8709077038 -0.825346083 3.5741841934
6.4794478467 4.1877009136 -3.1748892286
16.4390087318 3.1484635078 -11.5521822551
-7.5973567194 -3.4020803267 -3.9845737709
7.0126380356 6.4306414468 -2.2382658586
0.2337079016 -1.235319573 -3.1937666604
-9.2900750792 9.6639478754 19.7312842409
1.8137825468 27.3531827311 -5.2693660338
2.556185938 31.4135167392 -11.6526450623
1.0207207185 -0.3010490591 -10.6955349208
-9.2821576584 -18.8967167202 -15.3112108848
-17.6776246842 3.2536652405 -3.0709521579
-8.6616513528 16.788579079 0.6008465252
-0.1143184028 -0.8124377259 5.0367411544
-3.555553582 -12.5106080581 -2.8992897859
4.9581289916 -12.3198575576 15.2448825048
-5.7838637404 -11.4393985452 1.152316721
8.1578441404 -16.944127502 5.3751061962
13.1022565727 -20.8318608654 20.3286642012
0.9345244754 6.4537491224 -15.8628499853
-4.3030896368 -13.762209903 -3.3064945087
-1.8753139134 -11.9574050276 3.5714168841
13.5260359898 -0.5603917397 5.359424501
-18.9235633022 -6.4704776691 -1.888786998
-17.1837012143 13.3120747019 8.1088881254
-8.8750982897 -0.9642927658 -2.5296632549
3.7668676917 4.1375012163 1.6204508056
-14.5164707642 -37.7286789825 17.0408041333
6.7364731682 9.624063701 -2.4299965256
3.9157494736 30.9938385727 -1.798517934
8.1646520505 -12.9477752249 11.8331806414
10.2741650209 2.4182914417 -3.6283728697
-0.8755172061 7.8475683775 -13.1092485034
-32.4296998591 15.7582623621 -0.3006480128
3.3579091489 -4.1668040284 -14.3383702562
14.0934526687 -3.1203637392 3.569283822
10.4691515494 -14.0673041357 1.8243942366
-9.9086130146 -21.1136390927 3.139458304
17.0975655523 4.7571503248 -3.8407679557
-22.0529325576 1.5883020276 -10.8385547739
13.3596461684 -16.1164390918 2.4474132046
10.1326589101 -9.9630513302 0.1417325212
5.6454217336 22.7226346951 19.0929810755
-1.7238690841 10.1244718855 -13.7257264017
-10.8109101373 6.6475358917 17.7784061633
-0.8767401137 -4.533616284 10.7874437162
18.2098503072 9.384462579 22.9649370583
-0.4306783903 4.2483398886 11.2440128542
3.5977692484 10.8346054869 -13.7472399505
-8.060328623 6.0920569905 10.1197212115
20.1306784444 -2.1642114978 -18.400287757
-9.9587499578 4.3278941673 -8.8460040119
-3.3769011152 0.623453355 -6.1640019323
5.7663803987 14.2964479169 -14.4626951332
2.9931060905 19.3367226254 16.5942928941
12.5702272929 -24.596396819 2.4662665462
-5.2751349597 -11.3776918949 17.389653966
-5.5916626306 12.3382303003 13.2950540342
0.1580144928 18.3217315301 -8.965216439
-8.0537466043 -1.374004053 -3.2514501946
1.0821711329 -2.5611810778 -9.7331084951
-22.7187391437 5.8560807175 -21.1764353475
13.6886322391 -3.9236936935 -19.402796051
17.8201603302 37.5487149398 15.2767776122
-2.3366363005 22.2611166067 -1.8065556029
4.8983916878 -3.5748114445 -24.4774726621
6.1928570324 -7.9962882119 -9.933521176
-5.5015675046 -0.6682141166 11.4604429568
4.1504981809 -12.514637066 11.6643172726
0.2919259284 -9.7129862521 -11.7529785877
10.9089115595 19.5991455505 -10.9273751518
-19.7502382801 -8.206982082 -10.0844791392
-9.7450242646 -9.9727714676 -2.8735396946
-17.1496525229 -1.5351961242 -24.4593488014
-18.6271173844 -7.2618291818 -0.1806411563
-10.6203257636 15.8603837024 10.6635005605
-14.0748239673 18.1098831384 -15.6316466397
6.1535464477 11.4001484956 -12.4534206428
7.2961489341 -8.3188089475 -31.2007979221
1.0252258517 -16.9043386959 6.8189886073
7.533976843 21.2122845865 -13.6404820995
-2.3412117177 -2.6165779681 13.5028574337
-14.0113413947 2.895899923 13.3629111468
8.4967554462 5.0362900878 -3.1991091534
7.2051495812 5.0985112801 10.2140025268
-23.4295002389 30.6120688116 2.0044650702
-5.6365459517 -5.8514118712 3.2309287526
5.3479229937 -7.7591888844 -21.0460157002
4.4636738562 5.3286054015 5.5979788958
-6.9859115911 7.8610331148 2.3554155835
-7.2380248408 -13.0242124883 6.3022092708
-7.0834187839 2.6191899775 -24.5911124132
-2.3368002875 12.9701614478 -0.7188429431
-4.677875246 14.7100878289 11.9781603111
-6.4543306833 -10.3610238213 -7.6152245621
2.8096598303 21.8073810855 5.5289532647
4.337466525 -4.8042995943 12.1929234115
-5.87698749 7.7299368964 4.1223160737
0.863720381 4.73314774 -12.6634351313
0.8711069612 -21.6157977904 -3.3747178461
5.4762873091 14.3401819937 14.4626853255
-11.1158199998 -28.5271440104 23.9160238044
11.799315388 2.6582174935 -5.4559467887
-12.7070245094 -8.1686195648 4.2916080706
-17.487934127 -17.9507217986 -18.6796587407
-6.0330753226 -4.6542254763 -7.7008471251
0.0659663042 -18.6111926847 -20.0628516661
-28.5306771385 14.868639082 0.416979814
3.3518461274 -9.2778689081 -8.7806183066
24.505469099 -5.8959803878 12.1489798032
-6.8170410972 -19.1852585047 4.1392239755
4.2689847015 -0.211500932 7.682773701
-5.757876659 -20.0871004802 6.5257442778
22.5515797757 -25.9422940204 -8.2301478577
-10.1601603921 12.7613053911 -11.4163874372
12.675788296 5.5720676398 11.1371221281
13.541004336 -8.6487547768 4.5975477096
-2.177691642 19.1352405022 8.1612382264
21.4349675877 -11.4122111179 10.6151857356
-17.0471609957 -11.7627129715 0.6044468884
17.5953751635 -13.3945964806 9.2694883206
10.4690505752 -3.1984973827 -11.3794871736
-14.2653408587 6.048857414 6.8629089307
12.325014645 -4.6898961595 20.4579566078
-12.7432077736 5.5148942852 -5.4791010968
11.0437216582 -4.3144726657 -8.0034913654
10.1828939893 -8.7694897136 -10.2508324718
4.979393833 6.7694079781 14.1489239676
-2.1804677497 -5.1548665675 -17.6464769969
-0.3410266449 -9.2714675641 -33.1922555064
-4.7535606163 11.2432474134 -2.0083357251
-8.8952271256 15.2043813626 1.5561420546
18.323858032 -2.1921566644 1.0403576639
8.4056486539 -5.3053750985 -13.2537992813
19.5536880456 -14.7398930668 -17.4066635464
-17.6725681639 -14.6962084215 23.7520709176
1.8016579084 26.5232576194 6.2252694571
10.0268940358 4.35395507 -8.4724576414
2.3895929731 11.8596304098 -2.4726854278
-7.3420311824 18.846320044 -2.5549769279
-5.6088067066 -17.4258968979 -6.2270985079
-6.6172155322 1.8158847344 -10.7440690536
14.5918690778 7.5475897299 -9.1867935103
-22.1904407685 -8.2638891929 -4.7451667447
22.799193751 -12.4799890044 -14.7392278424
-5.4154652248 -0.3786596982 -19.7965454673
9.3122129874 -5.5980424055 10.4868252424
2.765986044 17.8856458649 8.6674137804
4.8470690471 1.5207358272 36.9970553392
-29.2163278916 -6.449306796 -12.9488282126
11.7877536302 -4.7446331844 -0.8366203066
-23.7744472435 6.5726152757 7.2557394667
-10.7563151472 11.3436081921 20.9016812238
10.466187016 3.622035053 2.472512262
-11.6882551978 1.3641000588 -14.2579724585
3.3961046339 1.3590462454 9.2087353634
-11.0533523541 -3.9391035676 24.2175483823
2.2265923144 0.0823353691 10.1920965326
-3.3113084386 -2.5444104436 -12.8002966356
8.0620933111 -14.3728398642 -6.8308191081
5.0380790961 5.2229531119 -9.4092715458
-5.0754391238 -8.7739545394 -18.9432714865
-3.6601904831 8.1424416364 15.0395170234
-5.3825812827 6.5021307109 -19.3476900141
6.4680657642 -15.3671855134 6.2958554559
1.3704896967 6.8823779194 -6.5340878797
22.0926751668 4.7513673755 3.0704095588
16.7701030355 -7.3573322647 6.0083560204
14.9551783199 -3.5275652348 -1.9375897507
9.5931172571 5.8924322371 20.1038248658
-9.6172294374 -24.7818203775 -10.809347632
3.4915297527 -2.4217319912 13.0052705906
-0.6641664861 1.5093256747 -6.2278320885
-11.1715282681 4.5537156306 4.3868664759
-3.4420944125 -3.803359902 -0.2984450911
2.9491083077 4.7494451119 16.9191897284
-3.8309221988 4.3290908775 -7.7351786428
18.3815461755 -29.6701241476 -4.608407013
6.861844864 1.3699387357 26.6323527423
-0.337444522 -5.8106890319 -6.8043806681
12.6967649867 12.9892636411 17.8105532289
0.1662690247 -8.81731735 -28.1643636413
6.7731545464 26.8986750957 -2.2555031455
8.2023971145 3.4628890938 -25.9210795853
13.8039389287 8.412255814 21.0752335849
-33.6566838377 -5.1535176202 21.0995004516
12.0704897982 2.4581709897 -5.5628705969
13.8332548842 -5.6499287759 -4.7928220092
-21.8973417937 6.2192547373 11.0823578206
7.9948506925 19.1156899106 3.4559574756
3.7391622313 25.7935728763 -11.4707461986
15.9678701827 2.1741387098 9.5084568631
5.6887177178 -6.5692806878 7.6436237782
8.7312220075 -6.3828890511 -6.9370117267
-20.5452182884 -1.2776013273 -9.2895247778
6.2173173604 19.6786422905 3.4996498331
10.8648584459 11.9549119894 -7.619681296
17.2662792264 -3.1716254831 -8.2121936393
-19.0579081658 -6.4466200237 8.3449793727
10.5623356967 11.60733981 -0.698864517
-1.8951444918 -15.7462186725 5.4946742055
-6.7392159382 -3.8981212866 -4.3642130496
3.4394376784 0.6559436071 11.0247134324
16.8792758037 19.649124411 -5.1339671163
-0.7335162997 -14.8854169176 -12.2392458564
-7.3277536802 6.6193975597 -4.0228313003
-7.3340146404 1.328112772 8.770549401
6.6112190843 14.0376705909 -10.7651076878
2.5086428665 10.4345438081 -15.5181643621
-8.9718424297 -11.6959307403 0.1025481669
-1.9362858575 -19.7435144764 7.9646373388
-8.9454869168 6.0712078327 12.4619862211
3.3820595935 1.472592651 -17.6163454491
-2.955755594 -12.0546601623 11.5005088944
7.2666144943 -7.8774905003 1.7050761161
-23.328041062 -6.1966396227 10.7567659191
-7.0013873065 -5.032952435 -14.8121601954
7.1145894163 8.4631800764 14.5084027558
-8.5049216038 -34.9115655769 10.774753228
25.822536158 -8.627362481 -20.4301680005
-13.8199451777 16.5859399053 -7.4699073239
20.7949866418 2.9293336368 16.8081038731
-25.6353755906 4.9718443386 11.3716474011
5.3283257069 11.4729253729 14.3399690065
16.5662645638 5.113548775 9.5064615664
-15.8208366351 -21.7404034647 21.6412810272
-5.363263038 -3.2703692983 26.9576058317
3.8485209389 5.5788331663 -17.2622656162
-1.2319401321 8.0403317029 23.0380891499
-4.1921549368 -9.9521288168 16.6242294545
-2.4359845595 25.952851951 11.1433275146
12.965127276 8.4498854341 -3.440632427
3.6218739804 11.2344302311 -18.7301514855
9.2228912023 -1.4488927739 -0.9092143096
1.4863531324 9.3006665096 13.5255498647
5.4968666634 -4.5806694153 4.468853906
-2.4603892258 -12.1186307365 18.9894799131
-16.5478017985 9.7857047081 18.5126019244
6.1045375184 6.5769377404 15.5140860735
6.8947348054 9.4923958302 5.479046716
7.4449651787 3.1888438595 -13.7700531327
-11.9478511734 -0.8723480812 15.0704001151
-22.5151745741 11.704345197 10.0115723358
21.6670367217 -11.1494696876 -6.3999375871
-9.9274522538 -2.3707724809 8.7653242335
-10.4505298783 -10.6671003969 11.9061794062
1.8315194479 2.8386891952 9.2363911043
-9.3638495754 8.0891626845 -5.9572567231
22.9207142334 -22.6203298553 -9.406085087
-3.6560713265 -1.0407030873 -4.855923306
-32.4080942363 19.2662506103 7.8963210234
-0.1228590155 -9.836363337 -23.6814413092
8.9050622176 0.3847771217 4.2938580544
18.4865169299 -16.0618047778 2.1085802442
-4.1017872786 0.7460561091 -10.3388239315
-21.6755626729 -3.6406738585 23.3617276182
0.2638236506 -4.4563367848 -30.494572618
19.3404387246 4.2313077855 -4.7406543393
-6.702167399 10.0291064792 2.6077869261
7.5882364389 2.0801991177 9.7434982731
-2.0373179457 9.2635460131 2.7317908971
43.5238321428 -4.3391146671 -2.1688420306
2.3561202616 -7.7918405773 -1.0339215392
13.9506318384 18.0562623214 -8.9996969504
5.2438390969 13.436150147 -13.9979751426
1.0684883329 16.9825353668 -33.7743004555
1.6057200386 -30.486781883 -3.3303460985
-6.0303640163 2.5926785388 -0.7162159661
8.0976534006 11.2530054694 -11.3998969838
-12.9561784002 8.6951573888 2.5906922377
-5.0363334406 2.8416677898 -7.0867078165
-18.8084338782 -3.6578744818 -5.7340314528
0.049581407 -26.6987672054 0.539941529
5.7006687254 -17.1531184811 11.5364431201
2.5952797227 22.364607967 -2.5630191132
3.4424554055 -4.7992576074 4.3692618569
-1.9366817058 -6.1042505745 6.7223127395
-10.1770865931 2.175212176 -5.2162749755
-4.6370101052 -15.5244705929 2.7302435851
-23.0362121909 -1.8727620673 -3.0280034767
-0.4868273026 -5.6285348004 -1.5477719919
22.6742599075 -0.4670126634 3.0483787755
23.5590538672 -25.9154319215 8.2181914643
-0.0975977558 6.0557645551 2.4428392891
9.5762295704 0.2031690473 -0.7315310331
-7.4113106172 5.3263606065 31.8749757907
-0.4248768326 3.5187388527 -1.0305781949
-27.9539349009 -3.8966816158 -8.1000285739
19.1735043306 7.6281684741 5.6099759072
-6.4835562983 -9.6571416752 15.9639407967
-3.2551905866 26.8321439644 5.4276576121
0.3509914698 -1.6717483579 24.7519799413
12.8980529601 -7.311933669 -2.356211956
-14.013830339 0.9123178387 -5.8528506311
3.3814250478 7.992303337 -14.2237900148
-5.0798663454 1.608962943 -5.6616354421
9.4259169414 22.6407815365 -4.965485703
9.37017159 -7.201460936 -5.4651589326
1.4732096263 8.0792383317 9.8497067376
3.7172052317 8.3007974197 4.9613217301
-11.324382075 22.7845066918 -6.7985079466
-6.4628715564 16.7555082122 -13.7891310048
9.7129984826 11.8017790889 -10.0255044303
-11.5570940996 14.5156118023 6.0366479167
1.8309848531 9.2282254293 10.5823563985
-24.442322254 19.1241422997 9.2065497493
-9.8647743593 16.6546599357 -27.6822277196
17.0440592918 14.827145735 -12.1780530935
2.9782440057 3.4040182588 -2.097930706
-3.0607005728 -13.0449453028 11.2741486808
19.1568524484 -30.7594972902 13.2092258528
-7.6493713535 -2.9501656126 8.6030685159
-9.5833068762 -1.370161429 16.1566335532
1.4836159577 -8.2539525204 6.542069894
-12.9265607382 -4.9377526995 0.5878402519
13.9032958746 -10.2951986024 15.2967084137
12.3106587819 2.6930058681 -4.3213734247
7.6088821679 0.2758159476 -5.6694894053
-0.2050426713 10.2631984598 -5.553603908
-6.3867665202 -28.637738515 -9.9665441616
5.2185685583 0.7506831505 -4.4382134991
8.658612117 14.4091543191 3.7152006089
-6.9256505087 -9.6737878906 11.4449944038
-14.7860846454 -2.9638231008 19.2075813249
-32.5087014118 -2.6447178895 3.1734103727
1.4739992694 2.7110107267 -7.5582145772
-18.0436924058 2.0044274927 -5.1789634094
4.1951976519 -6.4710853014 -4.4301400197
-1.0632273246 19.8468318329 4.2098944804
-3.6511455003 -9.7538157146 -2.1474167746
16.2540489177 7.9135752239 18.5689426185
17.7895737531 9.3548527189 17.4306240917
-15.7849625885 12.1277366011 2.5493150574
-20.9609612132 -1.3330735745 -21.1816207377
18.73175729 -11.3922598195 -20.69243652
-1.046623019 19.0838505579 -20.458450566
1.2993443596 10.3770972306 9.5374430759
-2.9833312895 -32.0593677377 24.9682340728
12.0297460097 -5.9495271724 -11.8610987771
1.111783632 7.9397917207 -1.0993419555
4.0844701556 10.1128687275 13.9059119337
