LAMMPS data file via write_data, version 10 Sep 2025, timestep = 500000, units = metal

4320 atoms
2 atom types

0.3094343130636581 34.78822956633728 xlo xhi
0.21357719255931862 24.011468965241004 ylo yhi
0.40057159474002546 45.034361113959335 zlo zhi

Masses

1 55.845
2 10.81

Atoms # atomic/kk

3655 2 0.5023415246382668 3.207979330761972 1.2307976660972992 0 -1 1
1288 2 5.646619413879302 7.023875581023164 1.4206588570795344 -1 0 0
2040 2 2.266271549628849 2.845714791728659 5.086234842436834 1 2 0
3423 2 2.3395840740733784 3.1016208979652755 3.3990890080639025 -1 2 0
1500 2 5.426284430123785 3.8829456128787 2.3896097058018078 1 2 1
4009 2 5.24026938611484 4.9451170976454355 5.205915195758797 1 1 0
1945 2 3.255767865861843 5.68848729010195 5.272076452584458 0 1 -1
1961 2 6.647410549663124 3.324256856599642 1.2267577071567148 2 1 0
2724 2 0.7296088458696037 7.761359222412684 2.3665246128071002 1 0 0
331 1 4.951742842168884 7.553934184062622 3.158904811309913 0 0 0
2916 2 1.5604280884916857 6.705161970590395 5.526542798679812 1 -1 1
3910 2 3.0098167138484717 1.9084758459475648 1.8730760243480207 0 2 1
3115 2 3.1588244310504088 2.9502104370491726 6.740317224128935 0 2 -1
279 1 3.1957215942745343 7.719120424583773 6.652664870931537 0 -1 0
595 1 4.447653452449687 2.8711648617612697 0.6188078544791455 1 2 1
4109 2 7.201945086950329 6.08086413983548 3.6613853757213253 1 -1 0
1017 2 8.1761563776871 5.931747311049116 5.37314659112508 1 1 -1
828 1 7.62102487653022 4.9910912520877835 1.9830199446667716 1 1 1
2404 2 7.837541197249839 4.598251400949063 6.330604236365971 -1 1 0
1293 2 5.702685907576626 1.959368069601927 4.484891411545134 0 0 0
2630 2 3.979106130560311 4.497405573294147 6.458156501650308 0 -1 1
1161 2 3.4200873175556494 4.052273465094982 2.116336682691506 1 -2 1
2300 2 7.57668990039276 2.3597998145608288 3.797659051119128 -1 0 1
2895 2 8.609862260484753 3.4098819493818877 7.681746240093851 -2 1 0
1615 2 5.394754768073272 0.5887702411236773 5.312006577709406 0 -1 0
3812 2 8.128867127272947 2.8517313124769825 2.3126672254412437 -1 1 1
537 1 3.2025381252957867 1.248596248539546 4.52164442904387 1 1 0
2095 2 5.7352551526955695 5.540593913516751 3.3809270688275195 0 2 0
805 1 5.009952516838538 0.27022801057143164 1.0178533978306634 0 0 0
867 2 8.258446783864073 3.477990546789774 0.8351925542473319 0 -1 1
1049 2 1.2902666563766882 4.143317900592063 2.6681973640287997 0 -1 0
3182 2 3.1442658422671204 6.556646587926895 3.6062377028249943 1 -1 0
2245 2 2.139865803175644 2.599995080966836 0.7101283236595229 0 1 0
2808 2 2.504261182951212 5.381411641513423 2.707818497988321 0 1 0
3766 2 4.362473352327664 5.708802005031815 2.2984174161496305 1 0 1
2761 2 5.602803929670807 3.711409794803415 4.003201202623156 0 0 0
277 1 6.510572395876515 2.712918524542066 6.547905250471371 -1 0 0
2106 2 0.91995933580348 8.080513828991707 4.023255594924161 1 0 1
600 1 0.8610219923387913 1.1533825393870796 4.163995509653044 1 1 1
2885 2 1.9034752798157633 6.780627969831204 1.7104795148544683 1 0 0
1194 2 8.755619535037644 5.2780247051723785 3.672776890524979 -1 0 1
2243 2 6.538318981532092 5.7940225988169916 6.296282529931518 0 1 0
3721 2 8.400901077853844 7.219707569695757 2.6124850466733673 0 2 0
1728 2 1.4510049667614113 3.1804606948927487 6.804435240359811 0 0 0
1415 2 7.341224084479759 6.322330872303554 0.7701924017923925 0 1 0
2309 2 4.644838615454663 1.80437770816046 6.171967452875449 1 0 0
4297 2 4.561783339810084 6.720629834085387 5.344550135696151 -1 0 1
467 1 7.0678436266356774 7.509842265661143 5.270985223410707 1 0 0
1697 2 5.799790195380016 4.812756351074872 7.312769440324459 -1 1 0
1673 2 4.363540410264789 1.1079363364252992 7.818141447956176 0 0 0
1012 2 2.4594973478510997 5.773578065491643 6.907243475918678 0 0 1
332 1 5.374369272575765 7.664381862875082 7.528776387722461 1 0 1
1992 2 0.8924447012445537 3.591831293192749 4.194312300953296 0 1 0
1738 2 3.784304068620901 0.6459922717644393 2.641026111644422 1 1 1
770 1 10.015744592574057 7.8618861202466785 1.3863525630581526 0 1 1
3398 2 11.93210696205336 1.056702380215755 3.452686264677162 0 0 1
1925 2 10.27294588904952 4.036412629662239 3.920289962481823 0 -1 0
412 1 11.033875945404251 4.4466436935377915 6.52981728675128 1 1 0
2661 2 9.379352715114473 2.154585222529138 7.163299203925 1 -2 -1
487 1 9.333663120678226 1.6728689292584968 3.2784265157012498 0 2 0
2118 2 9.257304988717891 0.4110941271397266 4.972964746978221 -1 -2 1
964 2 15.160717641481815 1.4353494403012164 1.020641476237103 0 1 1
576 1 13.253813139860146 6.975494882008571 1.6601572059460605 1 0 1
3221 2 9.0847993537187 5.148138386157392 0.5647362009674123 0 1 1
311 1 17.232854924501435 2.9109988812843586 0.6763070237470385 0 1 0
3933 2 16.388390114438163 4.877433601919525 0.8882656204577654 0 1 0
1035 2 15.187841000969112 6.996985053305314 5.514206147104904 -1 -1 -1
4152 2 16.23273144997654 1.6797407785306901 6.765731659913092 0 1 1
3820 2 11.334520251443223 6.9598754211307465 2.7978375575551038 0 1 1
3530 2 12.706061595399502 5.70373803490928 3.127399846460516 0 1 1
1744 2 11.055772383638041 2.560662610196074 3.505518227025143 1 0 1
2067 2 11.51143890118217 8.063808091509811 4.308528063467101 -1 1 0
1560 2 15.40750854722254 2.4701090750751833 5.451419762809482 1 1 1
2957 2 15.411765964804475 6.661311449660407 7.327575452237352 -1 -1 -1
4063 2 12.339547625939218 5.344081082088996 0.48506244854441793 1 -1 1
3792 2 16.947694799920907 4.724208314547592 3.626952560743034 0 0 0
1438 2 13.751607135197737 2.1715759630749902 7.715730908416186 0 1 1
1487 2 15.380450038159202 3.3535444117290347 7.1187642825158495 1 2 0
4176 2 16.444629726175275 3.3319557271411564 4.356734193338952 2 0 1
783 1 10.534735220507518 5.588143724178172 2.205626650300934 0 0 0
3241 2 14.309416765003231 0.9602493248736205 4.249588735594839 0 -1 0
261 1 11.23324579546753 1.6455363019068865 1.487601778140271 1 2 0
936 2 16.582095348176452 0.49617513524135504 1.1693446667365428 0 0 1
3138 2 13.682685933914346 4.357849347252898 3.725132512402754 0 1 2
4089 2 13.990334108921411 5.704835785661866 5.200265519991881 1 0 0
2406 2 9.447215943429965 4.7610995033459425 5.262988782332785 1 1 1
91 1 9.041212782334373 2.729773516832643 5.207035134352553 1 1 0
4278 2 14.892270665798584 6.5745431693185195 0.4138448315102806 -1 -1 1
2701 2 13.022862815332502 0.6779132617463179 7.076575074320528 -1 -1 0
2907 2 12.721665877691652 3.040145541118739 1.91201413984223 -1 0 0
916 2 14.348000457094 3.328315051940506 2.3147173747193865 0 2 0
2449 2 16.759517000975066 6.2413340448072105 4.454102821131644 0 1 0
1922 2 12.492864619378917 6.160854110866906 6.049655033208661 -1 -1 1
248 1 13.204620276742967 7.307833290590729 4.14606915286884 1 0 1
5 1 13.656719433192304 1.3319984521176664 2.1898787572958014 0 -1 0
1879 2 12.863009744366307 1.4375635963388769 4.8589135550593925 0 -1 0
3617 2 16.041233797018513 3.8649135066619142 2.167934758530393 1 1 0
457 1 14.283292304102844 4.534921297049487 0.8436401783145849 -1 0 1
87 1 15.838203577695937 1.7982078183189922 2.9872781940013384 0 -1 1
4168 2 10.672751801740176 6.898523129762884 6.581941702621599 0 1 0
1361 2 9.995702487315588 7.56826263404815 3.748936378285991 0 1 0
724 1 13.350828124004508 4.857820727448372 6.992882714026536 -1 1 1
2150 2 9.306629101960269 7.487024046830047 5.505843229358917 -1 -1 1
3505 2 9.469954826451648 2.158877537507477 1.500425070202744 0 -1 -1
1999 2 14.906463133250147 4.173093648452095 5.31528689842657 1 0 -1
1875 2 11.773274774591266 4.151294773127437 3.233876224052425 -2 0 0
3532 2 12.208265203892449 7.761507387956514 5.988687279275446 0 0 0
1324 2 13.830726819693496 2.326061028995565 5.72471901262162 -1 0 1
214 1 16.1337876983923 7.2740775717323585 2.804174436201792 1 2 0
2463 2 18.585037380770828 1.1128064876807926 3.951232907382625 -1 2 1
880 2 20.954278548301662 4.476986189115704 0.8997092715652406 0 -2 0
587 1 23.42327314416245 0.3225457159867678 4.9454585677387355 0 0 0
1683 2 18.4443859353596 6.412903853632338 4.988385523652638 -1 2 0
3529 2 20.100117607162794 2.9356597323951497 0.4448019393498894 -1 3 0
3979 2 21.06695280312989 7.723851454547071 5.002986888452588 -1 1 1
4294 2 19.638665435617465 7.862026632229586 4.571939385608553 0 0 1
3397 2 21.365365597631612 4.7764778234969185 4.727033208819877 0 1 0
1652 2 17.705962302245215 2.691670678794921 7.160285966120872 1 0 0
2703 2 22.553762512974266 3.8086779463908598 3.472768611082008 0 1 0
4221 2 18.16965093071837 5.09692321634869 0.5888528009112525 1 1 2
4100 2 25.50683141173823 4.735779485227976 4.718881093880744 0 0 1
96 1 19.78385992860597 2.966642414994149 2.385039412230714 -1 1 1
2332 2 21.657968371203435 6.978961912784336 6.830251028770529 -1 0 1
2628 2 25.015701535763736 3.519111401812445 1.2410266807664034 -1 1 1
1937 2 19.04198667870397 5.396275039386908 6.21610578229923 1 0 1
730 1 23.497690975376003 5.740177964729599 3.6614870767067207 0 2 1
1053 2 24.003964553425362 1.7586818243351168 6.467243818196069 -1 -1 0
546 1 25.23469300937863 7.254440486588133 5.487819495532404 0 2 1
1377 2 25.105317368295644 5.04164464139076 1.2466806903618284 0 0 -1
990 2 22.94388564960735 3.350957491018916 7.153115752193607 -1 -1 1
3157 2 23.834090610363614 4.068345180486591 4.836369027348931 -2 1 0
1119 2 22.05800919658226 6.03293073380145 5.657601053032721 -1 0 0
890 2 19.49807436824431 2.57546679234253 4.475064699717631 -1 -1 0
3191 2 21.759842992084984 7.236355532722698 2.339589459089889 0 2 0
3007 2 25.747202947632232 1.6195713994340235 6.126087049769372 -1 0 0
67 1 26.021548560380058 6.809142143290364 0.5199826056876389 0 0 0
2437 2 24.165712752970638 6.243756968630642 0.581662101681416 0 -2 1
837 1 19.616603685219733 5.414809993247347 1.9414027696033829 0 -1 0
1788 2 23.190485728887875 2.2998935177975435 0.6854228081546141 0 1 1
4157 2 21.77773883710423 2.9009305489802446 1.3397044850759328 0 1 1
1824 2 18.766733049566596 3.354106837534091 6.087159662191401 0 0 0
427 1 17.641107726941943 1.4657389361663395 5.6017445943880055 0 1 0
3771 2 17.675614418833927 0.4247406027049734 2.54704270360924 0 1 1
2839 2 17.77007684277415 4.512059454425569 2.1351530013795093 0 1 -1
4142 2 18.348125749701328 5.4734154721103 3.367135703663633 -1 0 1
1798 2 17.941744060494617 6.603776358610865 7.709242148465723 0 1 2
1279 2 23.954542348597048 4.88769754105483 7.24821070411195 1 1 0
445 1 21.851752413798526 1.0473581265318055 1.5484980885854465 0 0 0
1373 2 21.018731171286316 3.306487566506362 4.506227043044241 0 -2 0
2007 2 20.264981114560452 2.634436094019273 6.272940496685748 -1 1 0
3733 2 21.435374651162054 3.9115401802143217 6.334826210159504 0 0 0
2971 2 25.04980451020441 1.1007809953896974 3.3371470756411012 -1 1 0
2304 2 19.952198481046928 5.449105545109231 3.8149966020429362 1 2 0
86 1 20.355168279025044 7.240676423054563 0.9531075712391767 -1 0 0
3137 2 22.044989459179348 5.836672342572814 1.598553975837507 -1 0 0
2686 2 24.684246109197854 2.4680961468952463 5.053594094243734 -1 -1 0
3274 2 20.657047061184375 5.452147343777557 7.152136594702276 0 0 1
1770 2 23.737058844666603 7.612561881865793 2.8597173885888183 0 -1 0
2259 2 23.58889167891162 2.1530359700482733 3.9283752833568277 -2 -1 1
1861 2 21.9877851360547 1.933687791497654 3.176678360110911 -1 1 0
2613 2 25.852305043485636 5.4242388601637215 3.316549997694603 0 -3 0
2465 2 23.677038480473808 0.29880995629006674 0.6444512424671991 -1 0 -1
2545 2 24.918425595504303 6.471544454762368 2.1589338050459337 -2 0 0
9 1 23.066185156302595 4.4413445501053666 0.6918820709809592 0 1 0
637 1 25.82307936022633 3.213741770164607 3.480300715014274 0 -1 0
1210 2 20.51170273050926 1.6947120245061575 7.651016836492805 2 -1 1
2774 2 24.470308315945523 6.685779853184726 7.406253172746425 0 0 1
941 2 23.97543518439455 5.752684380186644 5.846774396102048 -1 0 0
2023 2 25.07685286862623 0.5969471019872424 7.3744708813729405 0 0 0
3707 2 20.447261289573873 8.108335000967246 2.8508830544219714 0 0 0
3616 2 22.960336974431385 7.695739859068263 7.692102044774993 0 2 0
3604 2 31.161574408353264 6.047454281528255 0.8355577361047067 -2 0 1
2069 2 33.37885050249254 0.5342240523737953 0.49517506214451157 0 -1 0
2694 2 34.55260193307096 6.927759753106718 0.7791310540611478 -2 0 0
1083 2 26.609071949276554 0.6616382246510433 1.2393609877187104 0 1 0
2346 2 29.472453607630136 2.31864640998403 5.039533514742538 -1 -1 0
765 1 26.53102251624419 0.27500570585157624 4.560902058260179 0 0 1
1074 2 31.098922398338672 0.9701149066365217 6.450419420038054 0 2 1
3737 2 34.01357195535762 5.781195025031264 4.892892974978443 -1 0 0
160 1 26.978162107251023 4.177528849008411 1.2399669982556405 -1 -2 1
3852 2 31.25644431445315 4.879175739160551 4.427296520536832 0 0 1
290 1 33.41760341290917 5.241215179684239 1.8047641755329606 -1 -1 0
481 1 30.212876528931208 5.151411055831286 2.491203943640956 -1 -2 0
769 1 26.170460706192678 5.317981902633786 6.942685245512789 0 -1 0
2912 2 31.716479906924853 4.176970901081789 1.5680453161652437 1 1 1
1911 2 32.365528332851824 7.760109881241099 3.3435767565614847 0 1 -1
2356 2 30.11163443765224 3.2414920356066363 1.3799285945238497 -1 -1 1
2896 2 31.690540643373634 6.569770598128155 2.086729767211355 -2 2 2
3700 2 28.710763130296748 3.7319099685125816 2.405702404242492 -1 0 1
2137 2 33.06623096191012 4.0688883443107375 6.943367317420065 -1 0 0
631 1 27.54607435220381 6.185492367698298 4.693299491849049 0 1 1
2870 2 33.53381597585762 7.415701934383303 2.298322369586581 0 0 1
573 1 32.08141237528935 3.4468787485466867 3.3866618960679395 0 0 0
1200 2 33.832294137388814 2.664668132210701 3.6925787823730327 0 1 0
1372 2 27.305106160708405 5.9044892344520505 2.725507113833516 -1 0 0
2250 2 30.501164879513325 2.504888507277986 6.674749834868106 -1 0 0
2310 2 28.70229714756296 1.0443392102859035 3.978403861329043 0 -1 1
2233 2 33.301414240356436 5.74119693454253 6.533743818783335 -1 1 0
370 1 28.202597725967838 0.8509478777786911 7.150654212549551 0 1 1
3969 2 29.56855535455389 4.193250522623304 7.582206856206015 0 1 0
3774 2 33.33813926094567 3.1525950840165553 1.5930023571738932 0 0 2
2874 2 33.03285127367988 1.2226152410321163 4.52385775485172 0 1 1
1864 2 27.381380646277027 4.272865823146194 3.3874642682413745 -1 0 0
3456 2 34.449173015503646 3.4893141002303367 7.407588941442733 0 0 1
3660 2 31.577087638345287 0.5947462341418166 3.9273577800470045 0 2 1
3361 2 33.99037642375707 6.8893269893299145 3.763708602821368 1 0 1
3713 2 32.75067948383692 3.9248596597741527 5.29118881524538 -1 2 1
2888 2 26.68786042117868 7.7927340074859845 3.579915674682441 0 0 1
2469 2 27.23756670435783 3.42319071330376 7.089438780253195 0 0 0
976 2 28.45340305740391 7.064267811807552 3.247620004895322 0 0 1
3500 2 26.564489382991496 1.5369274331022853 2.9383373521426543 0 0 1
1846 2 28.046925829455148 6.2259747955764 1.2550972574929635 0 1 0
2828 2 33.650031812470004 7.128916834862015 7.415631329835034 -1 1 0
1516 2 30.05032601919356 4.052736702774691 5.667544394009325 -1 1 1
2695 2 27.92102630987478 6.490479369410689 6.884156530151853 -1 1 0
1555 2 33.18948059956905 0.8919750068963846 6.728021267949184 -1 3 0
2132 2 31.056936999694276 1.0221646137247566 2.3526945202954215 -1 -1 1
2330 2 34.12734203916702 1.4603908959097567 1.800773054064119 -1 1 1
682 1 27.274814204724425 2.2208538140103804 5.083669430921027 0 0 1
1527 2 32.44037878060827 1.6914259947854497 1.3044939175852437 -1 1 1
1924 2 30.28486029693273 1.6691385373177625 3.781171271952547 0 -1 1
3825 2 30.854580694334018 6.732501348243158 3.5328902853479174 -1 -1 1
3410 2 28.86784568007579 4.50826938910898 0.898260826238109 0 -1 1
2325 2 28.229128541005554 0.5339513631746529 2.1044923627279 0 1 0
3565 2 27.272133735706348 4.276973437949258 5.618851127474434 -1 1 1
1014 2 33.732397388617045 4.5061305577747195 4.032317810416757 -1 0 0
2100 2 32.02539180353476 7.2732321897132595 6.6626168104836605 0 2 1
2109 2 31.85815009889707 6.4454386178178416 5.170022107982752 0 1 0
1030 2 27.24340916187219 7.760974453135974 5.80473906100114 1 2 2
3097 2 28.817725021864113 5.015529964663306 6.3858483136605795 -2 -1 1
2772 2 29.71892717167403 7.675468176619171 4.1047742172082735 1 1 1
1668 2 34.60351569234187 0.2781102048429176 7.223143853795118 1 1 1
3006 2 29.41402476717168 1.7868686011417574 2.27170506134329 0 -2 1
2169 2 29.949547964024816 3.757061865727991 3.9245999336133623 -1 1 0
1412 2 6.9744801216973995 14.711048551960317 0.821524990715506 0 0 0
1501 2 4.553127833783321 11.651734997126812 0.5754688070650701 -1 0 0
2223 2 1.6965939828029815 13.640382607678243 0.5395210335092095 0 -1 -1
1163 2 7.37115956882206 12.479375154515324 0.8643585161400115 0 -1 0
1304 2 7.010692337192885 8.179645167247866 2.9792730056528156 0 2 1
1031 2 4.6428125723878555 9.63185392949744 6.684576143568796 0 1 0
1933 2 2.1481835927289152 11.613961164189561 6.719436240590962 0 0 -1
3070 2 4.099215634002552 11.612958387284129 6.409110115720011 1 -1 0
1779 2 4.227149131838358 11.274724821256948 3.586850384316902 0 -2 0
3420 2 1.2085094169212134 9.809747334836313 3.8295302241087725 1 0 1
3639 2 6.560498990814697 10.251259000278251 5.293909650796965 1 1 1
747 1 6.853691346853028 13.871644691670399 2.771516283378687 0 2 0
111 1 0.33239542474670747 11.507736283009182 2.7405034440323908 -1 0 0
182 1 2.800073568867338 9.764174351393903 5.4406236280688125 -1 1 1
2862 2 2.7411226472833095 13.147659507433323 7.171236599923626 1 0 1
3492 2 1.152371497290216 11.13783153268477 5.331356113998441 1 0 1
323 1 4.465557619843709 14.080405058870488 6.066654106170748 2 0 0
1617 2 4.211073897864022 9.448751050774433 2.923741456090656 0 0 0
223 1 2.533885674689549 8.424341741368274 3.160357182023036 1 0 -1
2581 2 5.487462298479216 15.70701845916053 7.3351499034274426 0 0 0
1445 2 4.9374889882036825 13.514650067934715 4.1242392360634454 0 0 1
506 1 6.20828952190201 11.994845133429443 6.221889963543999 0 0 1
3702 2 5.60684719126284 9.41990934235795 3.930179796981649 0 -1 0
36 1 6.337660758791634 15.711887160680158 5.218558993074353 1 2 1
2460 2 6.5755019520475555 13.497874173548503 4.982664103680853 1 1 1
1504 2 7.670933899408109 13.369939003499297 7.590792060991011 0 1 0
376 1 4.115733010841341 8.702489419497658 1.1337796211368654 -1 0 0
3055 2 7.573836302380998 10.068151182315253 3.108551698108463 0 0 0
3384 2 8.267715644106552 8.993598987403939 1.7791396708072722 0 0 1
662 1 1.5372998847525212 15.879307413745314 1.9512724822037348 0 -1 1
56 1 2.6911013767816594 10.712441092053131 1.8968129849387767 1 1 1
1739 2 4.953691064156006 10.844149309135682 2.0332125416313875 1 0 0
460 1 3.045795408119154 14.23641694932275 3.7603184644573724 -1 0 1
3209 2 4.594609435175734 12.116839304595917 4.874093349963724 -1 -1 0
1700 2 1.3184205393683384 12.408984505391619 4.022398458558918 1 -1 0
703 1 6.190122988713446 11.490228130706349 3.5622759115302935 -1 -1 1
4285 2 0.9820538311748392 15.708392746448057 3.6868059310121737 0 0 1
3371 2 8.407883749200364 9.199297934537963 5.490412521004861 1 1 1
18 1 8.85665894258062 12.220187157768727 6.53728336019481 1 1 0
1626 2 6.050495884166477 14.050339534615846 6.994002458018331 0 -1 0
4192 2 0.4061656034187785 8.444798123182052 6.812268344457925 0 0 2
2096 2 4.302996466972623 15.835046955223703 5.85347288387394 0 -1 1
1227 2 1.5854798281631854 9.774125827388227 7.731417944629931 0 1 0
2510 2 2.5728024921615753 12.412071735755582 2.764486661998757 0 -1 1
1553 2 6.2365979396193865 15.76218666389018 1.9554280631490932 1 0 0
3370 2 2.943852813803111 13.99008720698267 1.9575442023823197 2 0 2
3531 2 6.060040514596611 11.816697118102914 1.5575967813843536 0 2 0
3627 2 3.433098702859788 15.632475695763512 2.3446535622823186 -1 0 0
1472 2 0.39172743380042335 14.670561699645821 0.854340709961156 1 -1 1
4020 2 1.0317188471014815 15.228636804024017 6.861014283390568 1 -1 0
3534 2 8.08576445671251 12.754054641945226 4.466615787528713 -1 1 0
2809 2 5.263085093539801 8.330181867341192 5.747414506872376 0 1 0
4048 2 4.778370526404895 14.235479398621196 2.3562501195725747 -1 0 0
4242 2 7.470619986954149 10.259914816203658 6.917500314372266 0 0 1
2208 2 4.8189404513628755 12.753036099447423 7.578054860207507 1 2 0
3886 2 5.681415243143522 13.29471020668309 0.919468750752097 2 1 1
3001 2 1.2749589057435253 14.341849566688406 5.083343032363357 0 0 0
2648 2 1.172304322466175 12.694073187245156 7.536634524697433 0 -1 1
1629 2 2.504253158052864 15.090180336423808 6.0295785804322755 1 0 0
3559 2 10.136276229788502 10.827493696123277 3.0920584278987056 0 1 0
1853 2 13.853768488676039 9.44632993488619 1.642693028465223 0 0 1
2577 2 11.91920335678674 12.391444473210578 0.6715793862816695 0 0 0
1435 2 14.552554672513839 10.975500568952643 1.2885725554800378 -1 0 1
1967 2 9.528909355070777 9.761417489105659 1.9242937307147818 1 1 -1
1336 2 14.808268561582318 16.026787694866496 1.9660368293238217 0 0 1
3101 2 12.772650497615247 8.99092607960232 0.4424612047472394 0 0 0
206 1 17.432804589117026 8.421253650362422 5.185060263627886 -1 -3 1
3814 2 13.795154679903666 15.94531644911321 0.6034627444799447 -1 0 1
4310 2 9.326261119575884 15.163239493474334 4.494116901004238 0 -1 1
3126 2 9.32909065333748 10.269550348549654 7.4214040281757025 0 -1 0
3212 2 17.35687326181539 13.296593522962212 4.082383402027714 0 0 2
1303 2 10.54193124863031 14.741574526343234 2.5472337375374225 -1 0 0
1531 2 12.170315598877423 16.071623327322747 3.391925308255385 1 0 0
2000 2 14.465623228182736 8.289589684266453 2.7991464299638547 0 2 1
4153 2 9.26969664616755 13.880451386808518 3.6134689711996084 0 1 0
3264 2 17.446830877419526 9.126503428669082 3.152809349104563 1 3 1
3408 2 16.44657220037851 13.342193853211615 2.4537089673551877 -1 0 1
2270 2 17.376672321592526 13.37952168682999 7.305651345993255 0 2 0
3359 2 16.09296271022125 11.604282059436123 1.8247893915148459 -1 1 0
735 1 12.451601436565157 9.133131046870922 7.451541494375451 0 0 -1
2238 2 10.702057634351126 13.64159775180417 6.82039524042601 1 -1 1
2517 2 10.062481248329066 15.09796417670864 0.7963048656567452 1 1 0
2762 2 16.979424869321672 12.813758375326833 5.772310364567074 -1 1 1
3504 2 17.29143324108146 16.017676708642973 4.040218897234631 -1 1 0
1671 2 14.89037311555763 15.576622156409659 4.030699727348291 0 -1 -1
959 2 15.137280426092062 8.502913258724059 4.33644503745311 1 1 0
2889 2 16.209961874041767 15.401728040578488 2.769443625964483 0 -1 1
4273 2 11.330286536933704 14.047656115935396 1.124077233398449 0 -2 0
845 1 10.30232411091461 9.856522106395694 5.428020275409519 1 1 -1
2080 2 14.247987805916603 15.134449304966024 6.9656302817555975 1 0 1
14 1 15.867181011038323 15.829998490110892 6.001163866902522 1 2 0
1891 2 12.842844518160526 12.349366733006544 5.122710670547722 0 -2 0
3093 2 17.21031354409285 9.076277409513025 1.6693871131128195 0 1 1
3411 2 17.255335722006667 15.806889164116216 7.557435327953854 0 -1 1
2925 2 16.213282908147285 10.12322047896307 6.82449042542574 1 2 0
458 1 10.91918235388 12.864089778637434 3.059208518664558 0 0 1
4227 2 13.63925063194319 12.392488313957022 0.8328656474781758 -1 0 0
3426 2 10.910430526179693 11.267368375042654 1.4899557438453601 1 1 1
578 1 12.902627225273488 14.15570235257508 2.3861335271343203 0 1 1
33 1 11.629131982178809 15.863370428396953 6.652056639983038 0 1 0
1619 2 12.171489645760513 13.394324513105158 7.7980968970998585 1 2 0
3527 2 14.768625282823916 12.331986982276332 2.427671131766233 0 1 0
4069 2 15.691765698109906 11.648080917717143 5.939370455998747 -1 0 1
3228 2 14.954113724445909 13.784186805947824 3.319347541199684 0 0 2
527 1 13.978391887958445 14.167950210161166 5.38490363641553 0 1 0
3985 2 15.719393341949226 10.013860571018396 5.107158815815497 -1 0 1
3273 2 15.3767508400017 8.199614951812823 1.3769819236721124 1 1 0
2524 2 12.444607060085056 10.992366661850536 6.078345484128471 0 -2 1
1541 2 13.973920861599554 12.038568302943277 6.358680692213388 1 0 1
146 1 11.962570987081294 9.08309609550264 2.4307840376607923 0 0 0
3069 2 11.705419031953989 14.840517016824194 4.285769021838323 1 1 1
2231 2 12.351472657559302 9.260285157981356 5.244723334451076 1 -1 1
1869 2 8.958303358735076 10.306237202607301 3.974895530873318 1 -1 1
1642 2 11.074278785607223 12.079351143867871 5.799881687595017 1 0 0
513 1 14.152820559591971 10.459714617041987 3.444984936602409 1 -1 0
821 1 14.379467673731273 9.034172484766366 6.217549164732921 0 1 1
2530 2 11.665523431459519 13.50956968821961 5.086817764584351 0 -1 0
1440 2 15.650224930862562 13.66982329534717 6.151642371812145 0 -1 1
2319 2 13.947932382299825 12.761868239289972 3.9156099633888353 0 2 -1
3929 2 9.209650146787169 14.493587527268184 7.118685155471505 0 1 0
3061 2 9.422861191979825 12.164811022843885 3.8727088747899043 1 1 0
1023 2 18.0689673311732 14.211324777908809 1.3388675294154573 2 0 1
803 1 23.436860311690868 15.299727388054924 0.5233481809825965 0 -1 0
486 1 22.336831978199754 9.309671612719205 1.86306365352572 0 1 1
3757 2 25.174116488720685 8.44865351178906 3.666158901301147 -1 -2 1
3352 2 20.52901117692745 15.60203080219804 6.210991331832293 -1 0 1
3648 2 23.46530071638465 15.927642705695574 7.813514840787243 1 0 0
1876 2 25.207264644052234 15.67399976741169 2.061553521943694 1 -1 1
3877 2 25.647603088171525 9.936016423526047 1.2875861751991933 0 -3 0
198 1 19.287780022326412 15.746797762870807 3.337130893604134 -1 0 0
1793 2 23.14436618830798 12.454676858910542 2.127537028693465 1 0 1
742 1 19.32958724200724 9.809497100903192 3.90850042447665 1 0 1
2123 2 21.706341024824336 15.843197148085354 3.3219083056469625 0 1 0
4032 2 19.440560744166056 11.235151865569263 5.452344936473618 0 1 1
1050 2 20.71956427099885 12.734539195005947 6.141352518176395 0 0 0
192 1 21.098228246663055 12.3172609366722 2.68841588796428 0 -1 1
2144 2 18.12342112711605 14.635136694406164 4.621807665624167 0 -1 1
3024 2 20.287920964259296 11.292356077434288 6.797262595913536 0 1 1
4185 2 22.30956121064878 13.411280143229273 6.346369880803439 0 -1 1
1598 2 24.604290139797296 14.898841748343049 3.212973012050757 -1 0 1
2070 2 23.03708424907168 12.51715828797854 3.7587806993501687 -1 -2 1
1034 2 19.26529068706145 12.059307292955971 2.529678344846993 -1 -2 0
1359 2 20.476202736233674 10.51941067132756 2.489755591930776 0 -1 0
3229 2 22.941611921812225 10.870104215439984 3.1609602090137927 0 0 1
2534 2 24.52216986885103 9.300147496403778 5.422423295877467 -2 -1 1
624 1 25.982460959576997 8.50627508463553 7.453388121451214 0 0 1
472 1 17.778419923248492 12.127608485631427 0.8711437700164015 -1 2 1
2226 2 24.0910872171258 9.57728697917165 0.7497108603198557 0 -2 2
2826 2 18.73969059376469 8.261851435421114 7.2451179718877565 -1 -1 1
1190 2 23.81056138678987 15.58960147747231 6.202202710387148 -1 -1 1
1607 2 19.64936236939792 14.181503933588056 6.3566380448408415 1 -1 0
3925 2 26.04981196776444 14.208962254901971 2.156840824139049 0 -2 1
1192 2 19.591327647820698 9.115722687314056 1.7653838390909562 -1 0 1
1340 2 17.757948841834974 11.777444482802432 3.1404488935684083 0 1 0
156 1 17.60092211831274 11.063924558458268 4.580919627403739 1 1 1
2792 2 23.112082907033976 14.266275994718512 2.6107644861921817 -1 -1 1
1597 2 18.62863469164978 9.380260058166815 0.4776015267524773 1 0 0
1567 2 17.65111851180311 15.860135492454699 2.1244280412607486 0 -1 0
1507 2 18.19434093262189 14.948091470274534 6.286591848618971 0 2 0
1414 2 22.346124015322438 9.27859654872999 5.25119394132382 1 1 1
909 2 19.90912995520283 8.319025883300837 6.123612840174819 0 0 -1
1269 2 24.044059151562703 8.59344511444878 6.938966919068592 1 1 -1
967 2 20.737443450365895 14.252639120592038 2.6706340834272404 0 -1 0
2036 2 22.219710148364513 8.359618950557255 3.9018227888842674 0 1 1
175 1 22.10856658532969 9.456118261550488 7.456408546708808 0 1 0
2829 2 17.896589762923345 9.725189880748 6.797442841154224 2 0 0
3046 2 24.58747264958413 12.29135020852433 1.0922877656962997 0 -2 2
3418 2 21.749610453395256 15.398221403281193 1.7969792922759995 0 0 1
1932 2 22.018233404930893 11.13815906910998 1.2922901724934919 0 0 1
1471 2 20.811753249173886 10.223322230457482 5.526568973008921 0 1 0
80 1 23.1898892384203 14.549260125133358 4.8072002768688264 -1 0 0
3544 2 25.55031869549501 15.250389045194341 0.41014746381091305 -2 1 0
1664 2 22.184964114990997 15.233187189418134 6.549901917143328 1 1 0
2195 2 21.507758650161097 10.003564799509132 3.8255536883070977 1 -1 -1
238 1 25.87543974617454 14.650086511615035 5.4197942875421985 0 1 2
3342 2 25.634921336653047 12.19746749227091 5.571336107066897 0 -1 1
877 2 24.156302596749054 9.651748285606942 2.8467407557660436 -2 0 0
3787 2 20.997875359491008 14.332036031336779 7.264221505866582 -1 1 0
442 1 25.100998627587142 10.89640475021027 4.271236733878977 -1 0 1
82 1 18.256483016508795 11.489997479948721 7.106150420885746 0 0 1
1397 2 21.632497968184534 13.25307858779436 4.505141498761407 0 -1 0
2361 2 24.235468107541216 13.21266653092632 5.840444535514725 0 -1 0
4052 2 25.485039214404765 12.51239680852817 2.3344795916050876 0 0 1
2062 2 19.779473835409995 13.581780932962461 1.3890449852586 0 0 0
446 1 19.371729077868864 13.163655425799165 4.213373634993768 -1 -1 1
2820 2 25.288451016560472 13.254877580606529 7.1021209652209745 0 0 1
3232 2 26.832872789688935 8.521643640655306 1.2064195881362225 -1 1 1
1751 2 34.77500624459965 12.809417809896678 0.7219226188984716 0 -1 0
543 1 30.208872918560182 15.919829920833765 0.9112936501079688 -1 1 0
2993 2 28.35779071468867 9.095194896690744 0.9587330336762182 -1 -2 0
2285 2 26.41189389888533 10.425476214511637 6.114191931675643 1 1 1
1726 2 26.833363171072612 10.850672913465983 3.050500759453049 -1 -1 1
3525 2 31.41463819743766 15.961638682651582 3.7472906039618574 0 -3 0
2539 2 34.72154983511668 9.443469742164345 5.360312484710619 -1 0 0
3270 2 33.90530826498288 11.406497755385013 0.7023193122400189 0 -2 1
3750 2 31.672375177930473 14.902212816271595 0.8093996481998624 -1 -1 1
1688 2 34.447353408194445 11.809997485189951 7.0918256994443585 -1 -2 0
2082 2 30.01103622280461 9.036896440412727 1.5106678195374812 0 0 1
326 1 28.139004033591743 12.632113929303905 5.719238147826603 -1 -1 0
2133 2 27.690894425806295 9.43895976855073 5.3361636743369765 -1 -1 0
1734 2 27.552930033184285 13.85763269270693 4.099776922450511 0 -1 1
2009 2 33.88096179082052 10.068614813339574 3.577980960537894 -1 -1 1
281 1 33.046175349493325 13.608746077559415 1.620880286278767 -1 -1 0
3053 2 29.49774380098766 12.604347944541932 0.9529150681009119 0 2 0
565 1 34.591134582650966 9.203476367944447 1.3954124945932016 0 0 0
3874 2 29.859010901041692 10.663028259158041 6.135042875470161 -1 1 0
1762 2 30.726309300844974 14.237218652340637 3.765281947356368 1 0 1
847 1 27.634450558686755 12.741729477133388 1.9960743622353656 0 1 0
4005 2 34.46050621602063 14.796944093153835 2.4551640920612936 0 0 1
673 1 26.72946788619537 12.017168184119413 7.763465039556796 -1 2 0
3563 2 28.204616519047615 12.114128525176325 3.783067228314844 0 1 0
2803 2 32.61162776301073 14.340552460273944 6.7404099745843595 0 0 -1
1232 2 33.02305213011563 11.80911243967404 3.7618831737611247 -1 0 0
1244 2 28.9321304335886 12.993521109534058 7.782959284873538 0 -1 -1
3208 2 32.63253568396604 14.88413001016988 2.796208053353041 0 -2 1
4143 2 29.264102841422513 14.142855781671754 0.9920777144699592 0 0 0
556 1 32.20251086528131 9.511082984431345 2.5022448978847907 -1 0 1
291 1 30.342559908394417 12.909913930352054 6.125624913595148 -1 1 0
4201 2 33.96262715329431 10.080246778785034 7.065621915059385 -1 0 0
715 1 31.255178104146278 8.371238983751349 4.917033497447358 0 1 1
2782 2 30.746668126592418 15.219403566569406 6.757510219978767 0 -3 0
900 2 26.30268203810168 15.348130337073961 3.4865170434385453 0 0 0
1771 2 34.03898467654557 13.94321541190506 5.532133167003561 0 2 0
2742 2 31.37574776813625 9.993973693105305 5.954809057180944 0 -2 1
2767 2 28.960753769405237 14.622371591930575 3.9974208351366336 0 1 0
2995 2 30.276424241897587 9.428565270325096 3.3638968177608812 0 1 0
3788 2 26.260839892678554 11.487244463526437 1.0258712156621648 0 -1 1
1223 2 29.445977954798742 9.333556754367907 4.926111591212147 0 2 0
1182 2 29.569385373214235 11.282615329663527 4.472783911275118 0 -1 0
1095 2 30.248668562901806 15.334869949783027 4.91927077196969 0 -1 2
1904 2 32.82640162021836 12.814983917410768 7.715334323441232 -2 1 1
3305 2 28.2639411275933 8.628446801966726 6.831614393082317 -1 -2 -1
2162 2 34.075536004147295 15.406141673511796 7.570112681529501 -1 1 1
3730 2 31.608100756265596 13.131787429329398 2.995797944583705 -1 0 1
773 1 27.952457209050806 15.453092873994686 2.1763133643830597 -1 0 0
2799 2 31.26952307764893 12.433245788342896 1.3467033314266599 -1 1 -1
3059 2 30.8774615191459 10.42795384841468 7.616336090199069 0 2 0
3200 2 31.106264523087702 12.002645123916883 4.169568619251616 0 0 1
1214 2 33.09305083394271 12.403456243177285 6.195171232893038 -1 0 1
1878 2 26.183850417128276 9.489521536881552 2.8508943470859798 -1 -1 1
2994 2 32.67776080122616 9.80947546036459 4.718696634173724 -1 0 1
1691 2 26.395061501912807 12.452535578247902 3.9202370756830915 0 0 0
1677 2 31.98138576373422 11.53786763057889 5.358116536108784 0 0 1
750 1 30.47677618233484 11.12996934654662 2.4856823939791255 0 -1 1
409 1 28.516387500295842 9.24744435379385 2.935002047156037 -1 0 1
11 1 28.510023136890492 15.191655601129906 5.986230398867554 0 -1 0
3638 2 34.54630529078615 12.303390586115995 5.2259526372268414 0 -2 1
1580 2 34.15277909765426 15.074106498390233 4.151968307847623 -2 0 0
3376 2 26.7872484444647 14.186152665654275 7.351250583336705 -1 -1 1
3602 2 29.434772664029044 11.280557806071508 7.492331331693091 -2 -2 1
1703 2 7.9128672095762544 18.730259607120395 5.3413234175333315 1 0 1
418 1 0.7205893832974015 20.004897389952454 7.035773372403699 0 1 1
2450 2 1.7813331463033584 18.66817924051476 6.306763238902357 0 1 0
1759 2 1.020745947266002 17.593514448029282 3.1898548983297204 0 2 0
3088 2 8.774932865410014 18.190138981047532 0.9743999822703152 1 1 0
1187 2 2.594771856831796 19.919291972452584 5.088830442013551 1 -1 0
1262 2 5.734275523443534 16.862030935372914 0.9526509452278564 0 2 0
4311 2 8.50611456087299 19.006545997681258 7.019667397534198 0 3 0
3462 2 1.2861825632044117 23.753377640853977 5.890502628622755 0 0 1
1088 2 1.6004421908457933 20.91021033347407 1.2888657985956506 0 1 1
2004 2 2.8648339276457686 18.888138642927274 3.7289322503846893 0 -1 1
1040 2 4.865512661508781 21.98602237307908 0.9157588136075111 0 0 0
3682 2 4.188233821704255 18.39216520600622 2.872263323033229 0 -1 0
1335 2 6.512962527115643 16.74116757461082 3.5261328644541283 0 0 1
4112 2 8.254143499880504 17.250667501168287 6.29962856372611 0 0 0
2425 2 1.4343670698056552 18.299085056175684 4.733645590314468 -1 0 -1
1149 2 0.4097789968559624 17.764134388317203 1.747003084834884 1 0 0
3992 2 6.114783056299516 22.13557845871268 1.8629097785874038 0 2 1
2388 2 7.541671059859655 18.10199904793982 2.2602805137200663 1 0 1
1070 2 0.9150779603203671 19.326507345777983 0.7839771896783848 0 0 0
3071 2 8.19363185385431 20.666267274182132 7.5742401523043 1 1 0
1644 2 4.700492027034508 18.553847559313986 1.2667329222619603 0 2 0
4019 2 5.751198859730778 22.167025951137845 3.6440399611470067 0 -1 0
115 1 8.37170036557363 16.08108640793354 2.772852079401608 0 -1 -1
907 2 8.654323890353883 23.570019024052733 3.394955101947124 1 -1 0
3923 2 8.339614510111533 22.73428352812745 5.067956775927844 1 2 0
3536 2 2.652237881483371 23.37921133326074 3.402427902123494 1 1 0
3162 2 2.6212239135023845 23.305206410042402 5.171770436888091 0 -1 1
3362 2 7.577197497032103 21.839433685924185 1.1635552269284442 1 1 1
1939 2 0.48867364287045234 23.79530807333586 2.6216192989123397 0 -1 1
3110 2 4.8572689781127645 21.71532436505275 6.517235694904898 1 0 0
2999 2 4.535255635799045 16.602668217700156 1.8699424977064156 2 1 0
1927 2 7.057579183150217 16.53533448886953 7.355378195999226 0 -1 -1
3275 2 3.3116223669805005 19.00877842667719 7.094592121804335 1 1 0
1462 2 4.4042512543269545 22.822289605969132 3.482238945967855 -1 0 1
3769 2 7.325904375352738 19.175633282506134 3.8766587412139564 0 -2 0
225 1 7.3233523559841425 23.87815191325825 6.651692152833391 0 -1 1
4279 2 1.1111512852299708 17.150913688895223 5.948743720387144 0 1 0
3490 2 2.9556278257459674 19.43752177344429 2.0818807217481488 0 1 1
378 1 2.045485036295872 21.291352649678267 3.876752051709328 0 -1 0
300 1 7.917250982917639 21.734745561089888 3.261115470510769 -1 -1 0
999 2 4.072580812219202 20.171346218424134 5.941266566360773 0 -1 0
3348 2 5.8936060366485 22.774042371127535 5.132626795358444 0 -1 1
790 1 2.356781758375639 21.812265929703706 6.572139845477051 2 -1 1
3828 2 6.637402423701777 21.823892025564618 7.090752248311495 1 0 1
1000 2 4.805352051268068 17.260961898905578 6.6039204301339005 -1 0 0
181 1 4.49749907519914 16.942345720366212 4.17967490464801 0 -1 0
654 1 5.917160223575537 20.188436710171004 2.7943549407335313 1 -2 2
3799 2 3.630283736473806 20.859438181913305 1.3979033136559276 1 -1 0
1029 2 5.1883301849473655 18.631487685115452 5.661970658970945 0 -1 0
338 1 6.416534656799624 20.516805128092066 5.2897545788676705 0 0 1
313 1 8.711064919784006 19.654437748194212 2.076943881293479 0 -1 0
3340 2 0.780255261696528 22.3646705517122 7.3350289177526715 1 1 1
701 1 4.212508313221473 23.60935144629253 6.484795788337337 0 -2 0
2605 2 1.4681777778887548 22.359938957348554 1.9386569741761461 0 -2 0
3878 2 5.582956512729259 18.46232996990109 3.6411165938524124 1 1 0
1363 2 8.154446363161107 16.545048201475396 4.6333953663422225 0 -1 0
3239 2 17.393990768183365 17.58066108956634 1.1982271175679127 -1 -1 0
3395 2 10.025238019216733 21.162992142758895 7.332121698391956 0 1 1
4225 2 9.016571117567338 18.596633377492594 3.8681282325699065 0 1 0
39 1 9.291988060543424 20.650217828828794 5.67608859311259 0 0 0
862 1 17.31006711941537 19.44939521392058 0.6700767274256263 0 1 1
3471 2 16.265120916656947 16.352328087949743 1.27917970352698 0 0 1
940 2 13.19557019884265 22.16180493807944 1.077177067776007 0 0 1
574 1 12.514525951952676 17.548996292205267 0.5000433670720291 1 -1 1
2002 2 16.086346051019927 17.7228399399363 6.212481750998846 0 -2 1
3177 2 15.865975470378302 17.909517298347936 1.1838837242714637 0 1 1
1633 2 13.866749571547393 20.101278514529078 2.3403422789784343 0 -1 0
3255 2 9.772328345340284 22.367039250621154 6.113186013568369 0 -1 1
1681 2 12.11430788948448 23.695686784234283 5.924600148658445 0 -2 -1
3798 2 10.615398976448784 23.905791675464947 6.080998469299758 0 -1 0
1745 2 14.141159585872723 19.494681877887892 5.363746441609041 0 0 0
3572 2 14.80757640789588 18.698724636168592 3.6674044321418684 0 0 2
1974 2 14.858481028417998 22.820831924288996 5.029226909735518 0 -2 0
3098 2 15.819360751096646 22.583875393848167 2.0526086648155655 0 -1 1
3605 2 15.665601886089753 23.285793565557086 6.333952383326639 1 -1 0
330 1 10.667846346848883 17.15052462454934 4.407881934256179 0 0 1
1588 2 11.147295019813132 19.38145533151188 5.401213509200376 0 0 0
986 2 14.184477352254424 17.045079818105137 3.4068325434913915 0 0 0
1723 2 10.91543344613548 20.04037572509862 1.6885880462826013 1 -1 0
46 1 13.488395090548995 16.671079611907572 5.265212494901147 0 0 1
1896 2 15.701326419354297 19.437119800795493 2.2367072137426827 1 2 0
2257 2 12.871219836354125 16.266370388707294 1.8491701283075233 0 -2 1
188 1 12.494405214991225 19.0883547345325 3.808716174406968 0 -1 1
3134 2 14.692012094973697 20.819266354109864 1.1036432277708583 1 1 1
763 1 15.108970528883315 21.036195053192948 3.7948623349320116 1 1 0
1884 2 12.471517183137847 19.315640969572364 1.4567853376761468 1 0 0
2043 2 14.26983039207302 23.263999086751518 1.6534963474030746 -1 0 0
404 1 12.305752528357797 21.448261282090712 2.8832299870221223 1 2 0
2126 2 11.287809842220717 22.064629336012253 1.3354925189408924 0 0 0
3984 2 12.082000043012311 23.599361653454736 2.3849877788513734 1 -1 1
2682 2 12.196105770388293 23.39324117531558 4.188992743823187 1 -1 1
2749 2 11.167671331423051 20.846078570232805 4.448418658819768 -1 -1 0
3856 2 17.40727646678951 22.848027553853967 1.7671335830994346 -1 0 1
1267 2 12.669607756796248 22.18680494563386 5.128192657617923 0 0 -1
2160 2 10.192454745181207 20.846173229798246 3.081169256061574 0 1 -1
2579 2 17.182858744294606 22.32272029145728 3.4826458726576948 0 -1 0
997 2 13.238842283255511 20.84583151166592 5.4220773552275405 -1 1 0
2669 2 16.32017981063825 19.182550965525472 4.191926998942246 -1 -1 0
588 1 15.567798175977297 20.608321641659202 5.809861586143382 1 0 1
1366 2 9.433456206058775 16.08969436500242 6.2077517800091835 1 0 0
4107 2 14.981691229631645 18.63807742106973 6.762283573113964 0 0 0
2601 2 10.462861082312713 17.771842101706632 6.56005823088985 1 0 0
625 1 12.434879799585026 18.40285487722779 6.405482749123896 -1 -2 0
1451 2 17.24691899434493 20.42077308258871 4.457668272294907 1 1 1
1625 2 11.05113152160488 17.256895315474416 2.1328502260995403 -1 -2 1
3580 2 16.924325149667865 17.747204579204045 4.85979559676491 -1 1 0
2104 2 10.517792147827173 23.610665849708674 0.921007236502624 1 0 1
1257 2 16.462113811409544 22.629920257042855 5.104896574660276 0 -2 0
4149 2 14.717269203609108 23.306500037094423 3.329641019688445 -1 -2 0
1952 2 17.3001928249941 20.279741004379453 7.460837217869476 -1 -1 1
328 1 13.977711515066556 22.868236565916426 6.9633095530170115 -1 -1 1
1546 2 10.661701277702957 22.995688243421846 7.436370773537422 0 -2 1
1909 2 15.61645391897132 23.9859856724807 7.731857704968294 -1 -2 0
3296 2 9.794155167219026 17.741446003703217 2.860765614877533 0 1 1
3614 2 9.184763438806671 22.738154487593164 1.8443995343858985 0 0 1
3466 2 23.33313998633899 21.53071357595413 0.9499872772673261 0 -1 1
1152 2 22.43915891216328 23.83872981099423 6.785472845458369 0 1 0
108 1 21.19064310635085 22.967292853284555 5.211121138949088 -1 0 1
551 1 20.427728298569022 17.808786799381352 3.526420915681611 1 1 0
395 1 20.11741368944073 22.981078045926104 1.5410674682902992 -1 1 1
2447 2 18.244884501446602 21.24504744657863 1.1385802016443214 0 -1 -1
2815 2 19.755792224142834 22.0735329462605 3.9113316568846255 -1 -1 0
1930 2 18.424502415982058 17.388438653212454 4.015414201271122 0 -1 0
1917 2 21.922430336859833 18.341396079414324 6.941838343844315 0 1 -1
3723 2 21.68257771847126 17.101489241591985 1.6286813130489537 -1 -1 0
2219 2 22.09338923181822 22.831016696808646 1.2867173425390575 0 0 0
267 1 21.298232788488637 19.132633947691247 0.9716113396484128 0 -1 0
4209 2 24.860056368342473 20.48357159870323 7.388407443272738 0 1 1
617 1 21.858244665631638 16.57496956562194 5.05284351760996 -1 0 0
228 1 23.36161149765287 19.963465307578893 6.001247717646073 0 0 0
2966 2 24.949452303044037 16.53488097243227 6.8629769547202795 1 -1 0
1309 2 22.81998338996731 21.48501529966189 5.107708655127591 0 -1 0
4264 2 21.105931615741575 18.78754417275543 5.263123959589342 -1 -1 1
3876 2 19.39374064902699 18.687303076879402 1.158668134003066 1 0 0
1148 2 25.627923775627664 22.063316795319125 3.6181667847746146 0 0 1
2985 2 24.991074591478398 23.589443519134775 1.1791493934131627 1 -1 0
3013 2 18.82744277105949 17.122285687357518 2.2169088122862592 0 -1 1
888 2 18.876344951017295 19.453842514414752 7.124381418505968 1 -1 0
308 1 18.108293292397764 19.127081126153392 2.939355041640503 0 0 1
824 1 18.76840004837835 17.237474873548074 7.057084830860763 1 1 1
981 2 18.20626206143212 20.741973342410866 6.049285082133746 2 -1 -1
2234 2 18.851113865774447 18.439700077010492 5.45288074873486 -1 -1 1
3790 2 19.602839637491982 22.018445014620156 5.969812592371681 -1 -1 0
2673 2 24.033045830137333 21.008003591543456 2.471594330755977 1 -1 1
1329 2 25.087566665851433 18.720124169503045 0.9700196965058641 0 -2 0
2952 2 21.901686575960916 23.914195443953332 3.6245017153660735 -1 1 0
2740 2 19.48108359296841 20.048516674007267 1.9241564937234659 0 0 1
1790 2 23.64980209980618 22.108182782277638 3.8519604237553886 0 -1 1
820 1 21.781991727780937 21.8264183601138 3.05088096345641 0 0 1
4122 2 20.25286779727234 23.77041426021696 3.3029897664082277 1 -2 1
1063 2 23.403127338618496 21.118083576904063 7.82426163813504 0 1 0
2887 2 22.689298812483962 19.8745874505952 2.520838756740289 -1 0 1
1005 2 18.803436696862818 21.204901423702424 2.9142955166250895 1 0 0
26 1 24.820119159264998 16.71347435487298 4.648658972192295 -1 -1 0
972 2 22.43774685931791 22.132175808070926 6.774161027886019 0 -1 0
2097 2 23.382917553499354 17.443425151376488 6.322378868453746 0 -1 -1
4018 2 23.778914399174763 17.582183469186226 0.40167579929833863 1 0 0
1334 2 21.680793332974748 19.92307826408514 4.175690669976074 -1 0 0
519 1 25.59340013184847 18.891519227930942 5.891924157572632 0 0 -1
2005 2 19.73536321304203 23.837352483442913 6.562613503483437 0 -1 0
314 1 19.82301181597524 20.276307328083114 5.089853948534594 0 1 0
1508 2 20.008644149575982 21.073916845228297 0.5630433637529951 -2 -1 0
2593 2 24.737708376429744 23.277498461680892 3.7223713445191997 0 1 1
266 1 25.180957491030572 22.037640331807033 5.719881185620673 -1 -1 1
2866 2 18.901948897787573 23.44963483882441 4.7059669138071145 0 -3 1
3743 2 20.159956896367422 16.827960917110616 0.8931199316739737 0 1 0
2091 2 20.388907110422764 22.38834616902968 7.466503925973459 0 -1 1
1804 2 24.61548080882958 19.458055266732067 2.3806611983611923 0 0 1
3323 2 25.291140618901682 18.335728921413228 3.533867511763323 -1 0 0
2148 2 22.50245831460037 18.251868823733375 2.2317298351906882 0 0 1
817 1 23.303340767809544 18.497116504356747 4.232279288159556 -1 0 0
1203 2 20.005235673310136 17.003803825246905 5.479952990982887 0 0 0
581 1 21.44475645974752 16.755722676003742 7.811703525501964 1 -1 1
1859 2 34.32803701859352 22.691256521420698 4.240243352516334 0 0 0
1623 2 27.453058646091375 21.721494419025127 0.8315268718984952 0 2 0
2396 2 26.370379799331808 22.885602988987486 0.8102407213551239 0 0 1
3620 2 26.523163188603736 20.325166334216604 0.8903747131284961 0 -1 2
2639 2 27.094597462476074 22.26264492277619 2.990522313139225 0 -1 0
1587 2 33.16022981275961 17.23563051068856 1.7092338380501275 1 -1 1
659 1 28.113191281607953 20.050320970361533 2.309423793063656 0 -1 0
3345 2 27.714494157071574 17.687679074375858 2.2135798129999844 2 -2 0
2430 2 34.37635195405163 22.166764291649443 2.5458617512923345 0 -3 1
3472 2 28.71113997161881 23.202919796966093 3.4798191801570426 -1 1 1
1831 2 31.561473957413018 19.26255404243505 4.2065100291254165 0 -1 0
4251 2 33.16722590797164 21.595589756874496 7.4010161515110955 -1 -2 0
3545 2 29.457563507389445 21.7392582238244 5.090294529433428 1 -1 1
1378 2 31.114022177347998 22.594704946360565 3.9527783314473224 -1 0 0
3666 2 31.598575701641764 19.87836007526014 2.809221884223709 0 0 1
695 1 30.270802182199123 21.4086359080737 2.1491449781255434 -1 1 0
853 1 34.43763450413017 20.079008033122506 2.416294969119171 -2 0 0
268 1 30.368401858603363 23.874721527258046 0.8697398811833448 0 1 0
3233 2 32.60056523261305 19.199720029575772 1.5227594949812533 -1 -2 0
1658 2 28.690742906322804 17.964117373596906 3.623547251054226 -1 -1 0
2967 2 30.39914058782053 19.369435292292636 1.4030365692388371 -1 -1 0
3459 2 31.194436357081955 21.067206270100634 4.88557351296486 -1 -3 0
3903 2 32.26190477271099 22.817643065762844 0.9041963831295801 -1 0 1
136 1 30.125737511520093 22.6414137315235 7.669893703158576 -1 -1 1
3468 2 26.261288148747287 16.90963402712501 2.9128634011447034 -1 0 1
157 1 28.219747169170937 20.487688791970136 7.00656067717922 -1 1 0
3543 2 30.445403167813517 17.637086933867778 6.70948095373762 -2 1 0
3871 2 28.680281248864326 21.51292944865044 3.3827464280134594 -1 0 0
3691 2 29.715147118295118 17.722312137773358 2.2617518001741157 -1 -2 1
776 1 33.53852806443335 17.360388753263123 6.301381771083547 0 0 1
3555 2 27.437424233600417 18.551913338516428 0.8196898926306665 -1 0 1
3175 2 28.252656577433896 22.515842444014673 6.622912546816049 0 -1 0
1556 2 32.895854282001096 21.59301675208527 5.074765403529689 0 1 0
2883 2 34.28236196470496 21.11395007626571 4.020285400416599 -1 -2 0
589 1 32.56473388903312 19.83761588233196 6.03320749478498 -1 0 0
1179 2 31.31924980997917 23.059828816923464 2.3195504564043254 -1 2 0
567 1 29.85426653866615 23.849487537339165 5.09886543073357 -1 -1 0
608 1 30.051862951816364 19.380901299752637 5.638607687862117 0 -1 1
3634 2 28.14508609478466 18.314395636000754 5.318536130999493 -1 -1 0
3433 2 28.66930440757161 19.990506864222304 4.577148981185271 0 0 0
1399 2 33.28677280617944 19.619986058742093 4.270231888067016 -1 0 0
3963 2 33.00701077147413 16.179204614775152 4.409231058326057 0 0 0
882 2 29.744975211096747 17.24280932325572 5.352257273414055 -1 0 0
3000 2 28.141119909829705 17.220374384581973 6.2775816693628235 1 0 0
2511 2 30.622219973505725 17.690662702963337 3.628547191971224 -1 0 0
646 1 26.365172753257497 20.502812145192614 4.342626946333173 0 0 1
3830 2 30.19740163239724 20.353915678923464 7.548996517066045 -1 -1 2
1174 2 31.62855259292328 16.357126451768764 2.1301885534389133 0 1 0
2240 2 26.29019282752935 20.779925742576076 6.577504871040131 -1 -1 0
3710 2 26.624410815618546 23.103840993080205 6.446954519132192 -1 -1 1
1680 2 27.27216823373294 18.418156039651542 7.691267350791432 0 1 0
4014 2 27.05976388011567 18.396603590116555 3.773657614227133 -1 -1 1
1638 2 34.046594157104224 23.822344745172387 5.4196769640344264 -1 -1 0
3558 2 31.193765829296016 18.94632956711326 7.617054350711761 0 0 1
1216 2 26.998999883753395 16.13996659927249 6.913791468408712 1 1 1
3056 2 34.49312510239426 16.937890646823554 4.512587708103502 1 0 1
3845 2 31.6159565264935 16.60125763690504 7.469149336279345 0 -2 1
3407 2 33.24210937088718 19.053073311465155 7.778909734228299 1 3 0
2922 2 1.775987464549471 2.3709290307890525 9.69207272747271 1 1 1
4085 2 8.476869081839446 0.32034116435394944 8.365738322394533 0 2 0
3207 2 4.076153794122084 4.504154407410009 10.408584188666932 -1 3 1
3383 2 5.666532986237938 7.746276561481916 13.294200150684091 0 2 0
3588 2 4.4765893169358675 5.474074000148865 14.838284126290496 0 1 0
3213 2 5.4885994192652605 1.4571226070436565 10.79535479633672 0 0 0
1566 2 3.2484405148683 5.709428290852365 13.453743952710397 2 0 1
3763 2 2.387308516018262 3.4336289391901818 13.870694274033045 0 1 0
2746 2 4.32525382323198 4.560051382544692 12.396553595536309 1 -1 0
4300 2 7.48872822317204 7.92024279437972 11.922126957688514 0 1 1
1510 2 6.710864537034272 7.044301359011539 10.890983927096356 0 1 0
2051 2 0.43490948219372993 2.531192904801049 8.78383658699444 -1 1 1
429 1 7.305375673778448 2.143657718457563 8.801964972552677 1 1 0
504 1 4.879201644119648 1.263484190762249 12.830134708408636 1 1 0
1389 2 8.333986988723414 4.548981109931935 10.667774383603366 0 0 0
162 1 8.785293088119479 5.122994607362751 8.777391943206771 0 0 -1
3458 2 8.262035141042539 7.13233539763116 15.255941361651134 0 -1 1
2523 2 3.9118387670490162 3.708150924727063 15.07574745182201 1 1 0
3252 2 6.030072979022442 0.574880199865655 8.190394631379455 1 1 1
357 1 8.643840539302161 0.7309228437476418 12.261546010775184 0 0 0
3286 2 3.022422010864549 2.164168059902334 8.367496404203184 0 2 1
3982 2 8.665916442937027 1.462594072026038 14.778592348168985 1 -2 1
2486 2 4.090533787149599 5.545206531848764 8.058972272312685 -1 -1 0
1702 2 8.67096180157147 6.435254168266374 10.987837879077038 0 -2 0
1720 2 1.096557053353906 3.9246762176034844 9.639577987272324 0 2 0
1118 2 7.080156506694139 4.092837180480517 8.401756693913727 1 1 0
193 1 2.7204781172373202 5.925757367948318 9.753448428763779 0 0 0
1713 2 1.4074434057245127 5.129101137078858 11.08110527831641 2 0 0
196 1 3.86333339687947 7.3192824672573495 15.11773436480865 -1 1 1
2566 2 4.195240797937994 3.003902576853199 11.239967727358822 1 0 1
2149 2 5.870718389872727 6.74385696178053 9.481262344686685 0 2 0
2115 2 5.586758925859089 4.285718438072307 13.323019427767942 1 0 -1
2497 2 3.1801638834606067 5.599607165502828 11.765674683675968 1 0 -1
2303 2 6.670213303308568 1.109239579447639 12.328712374651907 1 0 0
3169 2 7.098045622784362 3.7373780343275063 13.584250485407356 -1 0 0
2845 2 2.7808225513240825 2.2282662695989415 11.105252075041397 0 -1 0
1395 2 5.292336489273677 0.891011767764147 14.537558409930972 0 1 0
1189 2 7.778783938769479 3.020550466365726 14.97578300329478 -1 0 0
2411 2 1.438713120683548 7.96559474370541 12.832632318323853 2 0 0
901 2 4.331105458040568 7.224854451929585 9.093341438888263 0 -1 1
1254 2 4.185853345823329 3.1639274176309335 13.47100367919313 0 0 0
163 1 4.669198326432726 7.397533889356516 11.276966648280881 1 0 -1
1019 2 8.226352582020269 0.4430815023082584 10.085097957370522 1 2 0
2753 2 1.302134685812534 1.9712447969123306 13.792911420353578 1 0 0
4095 2 6.923347545031562 7.935806614818219 8.569681997870319 0 0 1
2787 2 1.7185071133887655 0.9332483847618036 11.20978941674166 1 0 0
1386 2 2.77245128342608 2.2775725445904262 12.834893222350733 -1 0 0
3195 2 7.886422788690045 4.723836005581481 14.847354813359562 -1 2 1
3324 2 7.429271380655065 1.6857482578913572 10.9932867196686 0 2 2
757 1 0.8317431159305946 0.499284946635966 9.16747266234839 -1 -1 0
1055 2 7.887342489300751 3.017766230647589 11.906876383578616 1 1 0
3661 2 6.983633713377369 5.480743138355335 9.764892232654361 -1 2 0
1899 2 8.865878614506599 7.448609855443393 8.577694699669793 0 2 1
254 1 7.195511775011375 5.6177741725711705 12.526550104401002 0 1 1
4064 2 5.495739960284624 5.032333023020758 9.26707132677278 1 0 2
3412 2 5.186355111392367 0.42347372545183803 9.729410226836857 -1 3 1
3176 2 5.8881760203999 2.6815698552345837 13.766143498295182 1 1 0
2111 2 0.818834782961954 4.413216421508556 12.737424830083903 1 1 0
2963 2 1.4519741225851888 5.226245805698704 14.138097377762337 1 0 -1
1387 2 5.773959638652634 6.212221849402935 14.094450348504209 0 2 0
2254 2 3.2762702021872894 2.972920330754137 9.658386870887599 1 0 1
610 1 6.190375301049035 3.4144860951507714 10.592774929859939 1 -1 0
3744 2 1.2425041057376043 5.2341549230716655 8.287971667155777 1 0 2
1870 2 3.010190580438731 7.8344995251605845 10.083355265055237 0 -1 1
934 2 1.4360246215055155 7.587009024468287 9.59346192834444 0 -2 0
4306 2 2.104993858067253 6.680715823604744 13.00658951313283 1 1 0
3940 2 10.280902280307107 6.434455527456502 8.131145601747605 1 0 1
2981 2 12.514677910550798 5.212995801457488 9.2883189083736 -1 -1 1
3049 2 10.376502982190313 1.8692575167256509 12.959472554056486 0 1 -1
2013 2 12.878046688122303 3.5678887130345247 8.685052011176088 0 1 1
3952 2 13.977351984232833 0.5480640564126331 8.415836536052106 0 1 1
2438 2 14.690798000430917 4.392154690556226 11.268353270669945 0 1 1
613 1 14.097403179618608 7.525483177415757 12.068588529570878 0 1 0
672 1 10.996994257996727 5.332126546422617 12.479358339118372 0 0 1
3890 2 11.579308384752714 3.0746245614455434 12.419915948671099 0 0 1
1480 2 15.271473989065804 2.7090971590014488 14.571698222219915 0 2 1
2621 2 11.885165539184383 3.1965724219215454 10.83907351500333 0 0 0
575 1 15.832526436822166 2.2300769962019205 12.128467411555615 1 0 0
1426 2 11.031808176703912 6.236372195486067 9.570254342096048 1 2 0
1299 2 16.052897927298766 6.534193926125939 10.576217030333613 0 -1 0
2797 2 13.907576084647998 3.707108365762831 14.437757047007159 1 2 1
2398 2 13.044436674426205 0.8342080641888631 13.933953622397366 0 0 1
1191 2 16.480869735261063 3.796927784599551 11.068629217898563 0 -1 0
1767 2 11.576936819871873 1.3380325016910701 10.51077583432415 1 0 0
1439 2 10.496157300662977 6.732515691212015 11.137769024086863 0 2 0
402 1 15.514882918126501 1.9564486898135924 8.910662552515815 -1 1 0
1676 2 11.31504557172289 7.988593382295747 13.833683741369487 -1 1 1
1429 2 13.29453030544858 6.825476381011058 8.024080171780463 -1 -1 0
37 1 15.969180257257056 5.155398393439063 12.494795761566255 0 1 0
797 1 9.04758342829765 7.10795570740016 13.256060966356502 0 0 0
2271 2 12.295814975812807 3.889310983812162 13.863990529339656 -1 0 0
2704 2 13.327737908302156 4.150685710448927 10.30173607415538 0 1 1
3125 2 14.623801053314098 7.870536873572487 8.108608271784215 -1 0 1
811 1 13.603242713482404 2.1144944335917693 10.13982037154772 0 0 0
3608 2 11.611435034371764 7.5412896320625915 8.479267036140751 0 2 1
1402 2 9.113947969625784 5.247638774065785 12.121736018843775 0 -1 0
1689 2 13.961421437654385 4.939441071763655 12.893443126461777 1 0 -1
3166 2 9.416737670252457 7.842654002432854 10.299210046378107 1 -1 1
2432 2 17.03312155495308 6.613774226110312 11.989986432094764 -1 1 1
1548 2 15.312086584324328 7.9181911199271235 9.838792971052943 0 0 0
3184 2 9.615757252269994 3.344727517488633 12.45952580004484 0 0 1
1979 2 16.935951569434646 2.3662462398279107 10.52102265151229 1 0 0
2987 2 14.583636462964796 1.3763376337497564 13.305681442834985 0 0 0
919 2 17.37192790298039 5.310402419124973 8.467877985307734 0 -1 0
3089 2 15.788934384338798 1.0531437909587051 10.614466108425368 1 2 0
2647 2 10.192658406099167 3.1615765209228095 8.043130717625132 1 0 1
2921 2 9.41040765194525 6.010017796008664 14.892288389882685 0 0 1
28 1 14.663544280266233 6.049170087033953 9.23369294823659 -1 0 0
2837 2 15.024392787790259 4.890886511901728 14.326040003445362 0 -2 0
3488 2 10.624025945448727 4.586039356036696 8.777266013508473 -1 -1 0
606 1 17.08746684918902 0.9638636024313024 14.392092682174148 0 1 1
2805 2 14.880978566146288 3.6658740682590616 9.639645538755941 1 0 -1
1166 2 11.30077524286688 2.7333618965046647 9.474352853174745 -2 -2 1
3310 2 11.919830440245905 6.933487706144167 12.237863246752902 0 1 0
733 1 10.843825211292224 0.9371243748222303 8.079948785977562 0 1 0
444 1 9.772592943462364 3.8650263372305713 14.65833595533974 1 1 1
1666 2 15.874627159084396 6.9261798059032245 13.348222092920075 0 1 1
1180 2 12.711536407276402 7.127138284680537 14.691051924764825 0 1 0
3936 2 16.55013979388947 4.041251295883596 14.003194029088082 1 2 1
1926 2 16.832801975037626 7.7780338376153 14.575868866004225 -1 1 1
3561 2 10.324613778414179 1.3623234410170815 14.472072150780598 -1 0 0
1383 2 12.958401662844157 6.140549280727873 13.146564521263631 0 0 0
3862 2 16.666962666243133 3.7242162758964215 8.139714208001335 0 0 0
141 1 14.864577745267635 7.356493125109177 15.056060681268086 1 -2 -1
3058 2 15.163299212562146 4.750993716100713 7.9351704649193415 1 -1 0
1609 2 17.4938693323775 7.716845688177086 12.801531525800804 -1 1 0
3124 2 11.962094275505754 2.0427365283766923 13.658640932321221 0 0 0
2743 2 14.52444724570694 0.8566816862203128 11.6143874661453 1 0 -1
2003 2 19.241420266354645 2.7168947965746306 8.121480540676636 0 0 1
2655 2 17.811166233577907 2.1389938335694034 12.374760234617593 0 -1 -1
169 1 18.324377476520283 6.270059108632226 9.961721475901344 0 1 0
1010 2 18.5778099372231 1.594729882296673 10.950439632313063 -1 0 0
1465 2 18.19918295897509 4.230565975129035 14.791079479053334 -1 -1 0
280 1 24.6821260965825 0.7206051086200305 14.994916095260615 -1 -1 0
485 1 23.21213660187224 6.162508425417626 9.013615615404582 -1 0 0
230 1 22.980887674313728 7.515678848232944 11.694482563204776 -1 2 1
321 1 21.208407716962725 4.437310774210952 11.295148403516556 0 -1 0
4133 2 25.123819553045845 7.133868173974497 11.945389522548629 0 1 1
3652 2 25.413998116130784 2.6163933502174803 15.032101671708391 -1 0 0
2603 2 24.135790950839297 2.0791627468041183 11.516663742226765 0 0 0
655 1 18.254258388339498 0.8418607090828737 7.952951944161665 0 1 1
1027 2 25.98562154527991 1.3049149165055207 11.175513436437164 0 2 0
199 1 18.084282107158693 3.709570107359403 9.474545133426265 1 0 0
700 1 20.137042459433108 2.320259271597456 10.169343692379709 1 1 0
60 1 22.377716317568556 1.4226961247475975 8.719114223569104 0 1 0
20 1 18.647860956393213 8.13290688307369 15.044195942096632 0 1 0
796 1 25.982286659204487 3.5024762621048318 10.245615385660633 1 2 1
3428 2 19.806238516156878 3.709950483524249 14.091603356608536 0 0 1
539 1 21.420213058722023 0.3730150059125578 14.475774374736666 1 2 0
1651 2 24.870080706630002 6.673764016490407 13.893961110982264 1 -2 0
3238 2 17.933288474269407 0.2464305654635731 12.55199514071304 0 1 1
4022 2 20.036094273083176 1.9639147967092654 13.83269057893318 0 0 1
529 1 22.395646070779662 4.9997734052780975 15.205753577957461 0 -2 0
860 1 21.25874285943437 3.8285525251764247 8.299660261673269 0 1 0
1132 2 21.085895234632602 2.6230734248781467 15.055035067363585 -1 1 0
3727 2 21.29895124422659 6.398297538806193 13.68428235947645 0 -1 0
2311 2 21.632517976047403 7.319032470007359 8.507337903319037 0 -1 1
130 1 19.230186823061377 5.522582383626157 12.843043236991766 -1 1 0
3441 2 24.52220319060407 6.960541144096248 10.21439624957427 0 -1 1
2184 2 19.261235900799036 4.617223719790152 10.954110190001217 0 0 0
258 1 23.90633761894402 3.914074499951138 11.868146994582476 0 0 0
3835 2 24.816256169931304 0.6495363067287334 10.127083391013983 -1 1 0
4309 2 23.39302293108805 3.817571985477749 8.561015242864384 -1 -1 0
2712 2 20.845180280261328 7.700144651125186 10.93285652316769 1 0 1
1572 2 25.983997452178592 4.49393863536738 14.207424572700448 0 -1 1
3630 2 23.363245489032487 0.7866762000382921 13.50967070801208 0 -1 1
3123 2 17.647761930260263 4.878111323029125 11.287704542304429 -1 1 0
3554 2 24.30787173737909 2.3729716794725153 13.254550602397405 0 1 1
1540 2 22.152909915006667 1.9931928054657644 13.670598639610587 -1 -1 0
1858 2 22.34392857266749 3.6845787301580724 13.660728601146682 0 -1 0
1951 2 21.106513072102533 4.8963769589552175 13.779349451631568 0 1 0
1032 2 24.800294861346682 5.25421660665323 11.057187549548415 1 2 0
2048 2 19.425742312899445 2.85135529898496 12.156617140781297 -1 1 1
3867 2 24.968561845745302 5.274930759904675 12.936645403662592 -1 0 0
2880 2 22.306415736209726 2.8617377420854515 12.025031788483751 0 0 0
3503 2 18.19914047720169 3.7295493892088944 13.036285585022073 -1 -1 0
1297 2 25.1268858940602 5.206813224769099 9.226869233294726 0 1 -1
1197 2 21.49298004310463 6.2280305227172414 11.556061660989188 0 -1 1
4304 2 18.72788494828679 7.95132016195766 9.012637925614873 -1 2 0
2365 2 20.000641270725627 6.163056002605163 10.745443336993457 -1 -1 0
164 1 20.122650171325798 6.049766646404819 15.228746184817476 0 0 0
4261 2 22.639636684926 1.4880545840448383 10.757137219604683 -1 1 0
1084 2 20.440980453094134 7.831646708082979 13.72572472426402 0 -2 0
2587 2 21.26469679872168 5.6697080756826095 8.763254325045867 1 -1 0
2822 2 22.138781342319607 3.1727876804956128 9.949534258871948 0 1 1
1583 2 20.052550534450408 7.051870291223864 9.535820399392367 0 -1 0
352 1 21.339652528032513 0.9726101951194274 11.920324467482338 0 0 1
4058 2 24.119290978710797 3.7620430994920273 14.226478095118598 0 -1 1
3997 2 23.072918199884807 5.549731354905768 11.294783120489585 0 1 1
3912 2 33.959480985305674 5.274306662191018 8.126206757002764 1 0 1
744 1 30.66776394552052 6.533664316039663 13.974698201150552 0 2 1
871 2 31.54198795564257 4.058587758589743 12.917515886690717 0 0 -1
1760 2 27.18447707204668 6.595850963238356 12.873665495834802 0 -1 0
1605 2 29.232952849152067 0.7621475152934468 14.169212655067478 1 2 0
3118 2 30.031445671192536 4.431574035027853 14.10670570628926 0 0 0
2390 2 28.82343929938743 3.626550000295645 13.062407894692846 0 0 1
1551 2 33.72060015611123 3.984788123987889 12.116366945720337 -1 0 0
3405 2 30.776338617417164 1.7770541849329897 8.09857940261492 0 0 1
698 1 26.489751620105903 6.404388699450007 10.511143912774111 -1 1 0
3780 2 32.60654777948673 6.9311155660926875 12.510203441646516 1 3 1
247 1 30.505590549705055 2.42096216497743 13.665179082632582 0 1 -1
3073 2 32.81527053757526 3.689324783565105 13.738548934098908 -1 0 1
342 1 30.763875542650403 2.667619166541479 10.075653796606423 1 2 1
1398 2 27.744000247485417 2.678793738790925 10.445315099346947 0 0 1
3189 2 33.730343545770566 1.496074298512613 9.704182551892508 -1 -2 1
2047 2 32.539913170394115 7.228746291761896 14.409795763701009 0 0 0
2750 2 30.33999763527061 4.595856463057383 8.873132686898956 -1 -1 0
718 1 28.81171790626945 5.409624569695486 12.013100649799977 0 -1 1
4151 2 30.306813993404447 7.176431523973435 8.211516231176022 0 1 0
2556 2 28.31287352779047 2.4151171180989928 14.327619116722332 0 0 0
1255 2 29.17087498878196 6.1800504924068145 8.00964618612576 1 1 0
1369 2 26.46754459752333 1.7611009906110193 12.753705272412581 -1 1 0
2562 2 34.560920876155265 1.1766163379599615 14.760103363439365 -1 -1 0
1647 2 27.537614911686077 3.441715319971331 11.993791364445368 -1 1 0
30 1 26.693416216108037 1.0598875417013 14.496219830912333 0 1 1
657 1 26.97333188941457 1.207144242715707 9.309735086432912 -1 1 0
2659 2 29.7037523390195 0.7404343712951706 8.977623986989508 0 2 0
3704 2 34.71582853223845 0.9526891140666139 12.272737023542286 -1 1 1
123 1 29.5714320595905 0.9401118301180066 12.22342231995942 -1 1 0
2700 2 31.342063500258963 7.735526607236737 9.684408413027159 -1 1 1
3173 2 29.202708778361576 2.857119311566853 11.457728444092671 0 -1 1
3797 2 26.53427346269818 6.04565247627842 14.664166437772982 1 -1 0
1558 2 29.09532709295857 3.632372986336425 9.461383576703962 -1 0 0
3715 2 34.684500745251455 6.39372468827574 10.528255851500361 -1 0 0
1850 2 30.947031791706834 5.402554766874924 11.77300786893833 -1 1 1
1669 2 30.240848854335216 4.405087853298777 10.655427514506654 0 0 -1
1834 2 28.97686878362545 1.2698708429146857 10.327872329225833 0 -1 1
3520 2 33.60100494763543 2.109771740267266 11.365944302514828 -2 2 1
4217 2 33.69770414751106 1.225973772733191 8.164027268336802 -2 1 0
3708 2 27.355272367435024 6.259929308886039 8.389296119513233 0 3 2
3295 2 34.344544814137734 6.946885725733663 9.018861303879328 -1 2 1
359 1 29.824514982541125 6.5154329845914765 9.953890103926671 0 2 0
2482 2 31.96298397235893 6.44991731649352 10.860149813863528 -1 0 1
1721 2 32.18930827339603 3.266895355617064 11.504420563039147 -1 1 0
3718 2 31.1874019238868 0.596235846483284 13.667539864963 -1 -1 0
3183 2 27.533588226340616 7.385807287784412 14.421164571188188 -2 0 0
1903 2 31.560662956185826 1.3561523129281712 12.073656809420966 -1 2 1
384 1 33.211466474029876 3.543761686198591 9.509259736190423 1 1 0
1061 2 27.4943038170019 3.3613953291364074 8.919699174446494 0 -1 0
2318 2 28.303676048215006 7.4400470128390745 11.23649009775091 -2 -1 0
2042 2 34.34339002800111 4.727111379590688 10.602311968791755 0 1 0
669 1 33.79877287056816 5.659219490592337 13.75971411622185 0 1 0
2770 2 34.275662645933565 7.5572536773775525 11.87920254457509 1 -1 0
1955 2 33.28065986733705 5.773290708051127 9.832561691449142 0 0 1
784 1 32.48675414817606 1.2466067006225756 15.051293008276588 0 1 -1
120 1 30.27951755651331 7.8781254935315514 11.984641387848045 0 1 1
2263 2 26.860265593010283 4.830435892275487 8.889694331286968 0 2 0
3301 2 31.546140462928506 3.7013032737552867 7.970819468063287 -1 -1 1
1177 2 34.411282841328955 2.664466121520105 12.981378558622533 -1 1 -1
1634 2 26.96890607772074 3.18717316128827 13.593537078023818 -1 -1 0
2842 2 29.234886303642096 7.397385403428764 14.97525621382259 0 -1 0
1284 2 31.954695577514947 0.3489144037165205 7.893164434753001 -1 3 1
3574 2 6.356644221783347 9.451705810402178 8.244103720375358 1 0 0
1696 2 8.091515626478792 9.20986356670541 8.400903190947112 -1 1 1
1885 2 8.507910807268622 12.635428266696696 14.81512064023658 0 0 -1
3759 2 4.788447395962399 15.051378755409356 14.626412097854045 -1 0 -1
1428 2 8.051314470740191 8.424440910797877 14.336694158190515 1 0 0
4086 2 7.2602740224785824 15.950672043326666 12.362584622239973 1 0 1
1571 2 4.818330380910349 15.568425170860907 10.7758405399403 0 0 0
1406 2 7.918937807703826 9.157397294894425 12.891672109418598 0 0 1
149 1 1.2069173136712832 14.592773182836996 8.526603020304453 0 0 0
3379 2 5.556007141611765 16.004227242608124 12.195310446005383 0 -1 0
1155 2 8.831632976115646 9.30380753247385 10.257507414753652 1 -1 0
3516 2 2.7393288750710765 15.52685081909925 8.798972534628172 1 0 1
2928 2 6.1707013344529065 15.661662744858553 13.758651288517482 1 1 1
72 1 8.64783864981072 12.114209218030009 9.27492330324067 1 0 1
3930 2 5.433509004738632 10.214629988950792 9.579438221539991 0 -1 1
1524 2 8.161259064088105 13.06427983884969 12.797355300190777 2 0 0
2504 2 4.532252917166042 14.403332452741909 12.874204568029166 0 1 1
1661 2 1.5898080097945142 11.30251774616872 15.005834392256384 0 -1 0
628 1 1.0250117510241281 12.514718425258918 12.170189049131693 0 -1 1
4179 2 3.050486801775842 13.015912053430878 12.380107783159561 -1 2 0
211 1 1.816375014201454 9.552836677953655 9.840213583743207 0 0 0
3783 2 7.885767929475613 10.710228001317782 10.574589600706158 -1 1 1
943 2 7.862191493145762 10.96120702715816 12.582528594049036 1 0 -1
1009 2 0.9654036150902123 8.886883041562568 11.530970822069966 0 0 1
1401 2 3.346615353993339 14.06010153736451 13.957105734379946 3 -1 0
933 2 2.3125626292768375 8.52764982766582 14.396910482345627 2 -1 -1
727 1 2.9003654372606693 15.050870040139081 11.19997881960214 0 -1 0
372 1 5.025951999498722 12.384159713138642 13.305616078156186 1 1 1
2089 2 3.640940682339698 10.734969537234415 9.424328217148553 0 0 0
4172 2 2.580329627482493 12.186011397834275 13.809703799943026 1 1 1
2389 2 5.290933245384202 10.87631716487105 7.945621418422658 1 -1 0
660 1 3.3377638515529537 13.78882097092708 9.163338361175573 0 -1 1
7 1 7.977709641206382 14.707794903240885 14.32242584165439 1 2 0
4017 2 1.2990179105285953 12.421775962283261 9.943630751923832 1 -1 1
2239 2 6.49158506205801 11.778845567252944 10.265769317311285 0 1 0
1778 2 7.338833265737949 13.253028531862684 11.108303323355125 0 -1 1
1338 2 8.115923801586646 14.664820221163716 11.761458887310067 0 0 0
3045 2 7.514759051432559 15.728390204072301 9.11726794538205 1 0 0
2244 2 1.9577208203832386 14.234274695432958 12.926523744669247 0 -1 0
21 1 0.7501959661709465 15.928148434725173 12.351901471196873 1 0 -1
489 1 1.9551776801077665 10.174351100599921 13.041610112104316 0 -1 1
3442 2 6.4574328729433805 14.860441686807787 10.216232885893135 1 1 0
3919 2 3.8828541913032684 9.198501680794003 13.801312124168396 0 0 -1
2214 2 4.414214964807772 15.960225583405165 9.03337358428043 0 -1 0
1124 2 6.60749928778052 12.223905366641802 12.282328049621993 0 2 0
94 1 6.201408303178373 9.296769167537112 11.163956437545188 1 1 0
1274 2 2.1656138790140074 11.16653786872096 8.567499603222094 0 0 1
3943 2 0.5179619886264347 10.59366132506817 11.432305399110065 2 0 0
2626 2 5.300631384186477 10.725783276931068 14.706809511013866 2 0 0
2726 2 6.001843530555418 14.72361592945785 8.670064317965489 -1 0 1
2302 2 4.924395240308738 11.986346051147185 9.119300303142133 0 1 0
2122 2 2.6559527559431317 12.858564782565171 11.059455852148195 1 0 0
4202 2 6.39930090982719 9.273656146654066 13.863125272333953 -1 1 0
2065 2 4.866278434575277 9.171938508394957 12.351516734862638 0 -1 0
4236 2 4.116760982741777 9.435109416067228 10.524766045569066 0 0 1
92 1 0.5857618179454692 9.602362411143242 15.170828359311257 0 1 1
4023 2 6.314429674986371 10.639400313108931 13.033236032453924 0 -1 0
208 1 5.305902129697003 13.483546328327321 10.995125757758375 0 0 0
2897 2 9.936039110692745 8.287152879190666 14.77500557486676 0 0 0
2658 2 12.347298225024927 8.717160103487132 12.392959002940549 0 0 0
1512 2 13.910871340120227 9.675207069104195 12.190615977203661 1 0 1
64 1 12.9950948632794 11.236257881778531 11.051735385841505 0 -2 0
383 1 10.971713890327203 11.680514982299373 7.918755581547196 1 0 -1
2849 2 14.758160709864836 14.790728265715252 10.496813970184894 0 -1 1
2760 2 16.557428485993974 13.156618990651843 8.676068396267361 1 1 1
3440 2 15.939552459267412 12.453948287839772 12.739827898332878 1 -2 1
112 1 10.014089166563448 14.022190025834758 12.978285965290338 0 0 0
2395 2 15.032853897774118 9.296377758076366 10.861759239490786 1 0 -1
152 1 9.992700044438067 10.662172087432335 11.007930292280117 1 -1 1
1425 2 12.247599899520361 12.41766132521455 9.207758262639377 1 -1 0
1849 2 10.877487246291112 16.019918867855623 8.631851566505011 0 1 -1
572 1 12.274192117720643 15.777077680887528 11.671859835056374 0 0 1
794 1 13.018427270867097 9.416377640395488 14.43845291265756 0 1 0
3980 2 12.040447786888612 12.602149958945123 12.479337956447358 0 1 2
510 1 14.486937071549129 13.044230801441834 7.910065823734394 0 1 1
2612 2 11.131022130112612 14.491854744898 9.937149163870963 1 2 0
1352 2 11.68368915630538 14.195090426512474 15.26565505381004 0 0 1
4275 2 13.204449122234491 11.629729311604779 7.903562329094704 0 0 0
2001 2 15.091532940667278 10.901388729262035 14.872521136585812 1 0 0
4206 2 14.473097608991338 12.221618796212638 11.813342751160958 0 0 1
2917 2 15.704161128527591 12.035900363428052 9.357850243537928 0 1 0
393 1 15.820207362360629 9.22483258831855 13.374486600629798 0 1 0
2393 2 10.54359125320162 12.748593970056612 9.916093669200022 1 0 0
534 1 11.235593851338834 12.419820683566039 14.65455343759119 1 1 0
3429 2 13.181672861976276 14.698424569206868 8.218233727420538 1 0 0
552 1 10.101936457984415 9.215901153264337 8.875280096423472 0 1 0
616 1 11.31654776658383 10.41925250361419 13.14115830799116 0 -1 1
927 2 9.200305518409207 11.795891631373332 13.656070999720383 0 -1 0
774 1 11.422282590766885 8.61073203146501 10.553999626823584 0 -1 1
923 2 9.321377633039267 10.058138589044447 13.147888707977847 1 2 -1
2515 2 11.178363091952743 15.21119314618432 14.152460431637634 0 0 0
1173 2 14.349222917337114 15.278614170062356 12.160466112758266 0 0 0
813 1 9.206032728873337 14.45038369803787 9.54181082219683 0 -2 0
4013 2 12.35443113644744 15.556979152782848 9.513451376699168 -1 0 1
2689 2 11.922430949967161 10.3297178323919 9.238442746093494 0 0 0
2210 2 13.18163262509321 15.32823217908605 13.45202235738436 0 -4 0
2494 2 14.14989164139907 12.77755075097427 10.218833199392728 0 -1 1
4059 2 14.581701480926188 15.187334034521333 14.672163834956134 -1 0 -1
1810 2 10.050122402928631 13.50807453098461 8.145495461368858 2 0 0
1532 2 14.317147801407996 13.4587656406344 15.222397816694032 1 1 0
1211 2 16.28001364276564 9.405914541437637 8.37769347164966 1 0 -1
58 1 16.016029615049405 10.918241500043358 11.638554047969842 0 1 1
2692 2 12.095602144956581 13.821891905227707 13.561353574181316 -1 1 1
2667 2 11.778773223710685 12.895602158988211 10.873406187147113 0 0 0
833 1 13.783374544985683 11.735819084833732 13.727558431386651 -1 -1 0
1156 2 15.45598907890843 13.457115530730833 14.058993754064772 1 0 1
2645 2 17.26887322015721 9.562632131305659 15.19355608093258 -1 1 0
1409 2 15.426544510402667 15.81247499531973 13.325459691202528 0 1 0
1045 2 9.977075445959054 15.257942976124417 11.460911690324949 0 0 0
3610 2 17.181380471367568 15.979409163518024 13.324263264387179 0 0 2
2011 2 15.497345920192734 14.132113707095524 12.379186553255654 0 0 0
212 1 9.178565505668633 10.502023953550486 15.075946908960525 1 0 0
591 1 14.166539924586274 10.22348483404755 8.669389194262315 -1 -1 0
612 1 17.53101984772572 13.90833141305364 11.12257739838376 1 1 1
2336 2 17.328818581864542 12.28180435319789 9.98659545707599 0 0 0
3900 2 16.67313381606794 9.200923489251814 11.263505767024151 1 1 1
736 1 17.004591660559637 11.755092709677152 14.38776186195675 -1 -2 0
2033 2 20.2343236843219 14.19904196566091 8.703722075643787 0 -1 0
1787 2 25.862332825562234 8.379260482404618 9.372343014733199 0 0 0
4258 2 23.02284058316999 10.919218856748842 8.424059951820691 -1 -1 1
4160 2 17.629290419026592 9.334410445213095 9.550291509496367 0 1 1
2513 2 18.862947612986726 10.298521294064969 14.40522815316669 0 0 0
680 1 18.219945786323755 14.749490013119596 8.814359581755385 0 1 1
541 1 25.232509995287657 8.988827265011984 11.082665599643185 -1 0 0
1201 2 25.984931772333837 8.186942339006528 12.93903860852967 -1 1 0
2641 2 20.79318034430135 8.588593950443105 9.24772787906064 -1 -1 1
3289 2 18.163910363078884 15.963003086959244 15.14633160302745 0 0 0
3619 2 22.179466389845004 15.050350677107819 11.68749893556209 0 0 -1
283 1 24.98737627553251 10.133799184069852 8.445213572620203 -1 1 -1
4101 2 17.615715902624085 12.296755707834786 12.604561954392334 1 1 1
1529 2 20.364799688286073 14.187343476530833 14.152407164773791 0 0 1
2798 2 21.43787814976802 11.528668900259683 8.9136283638806 0 0 0
459 1 21.398691200002176 12.536421036663782 14.352853447919475 0 -1 0
2255 2 24.500993449875978 8.558823967964988 14.258975800605231 0 1 0
3409 2 19.939234633622636 15.594974446698169 15.2596288311769 0 -1 0
1261 2 20.367120967496124 8.863585830813287 12.458508328034881 0 0 0
2722 2 22.552612469683986 15.255636074380847 13.344504996280373 1 -1 0
2992 2 18.931694072394667 9.352604128662852 8.488283716788821 -1 -1 1
3719 2 24.770333214816986 12.090164930005816 8.73161188613333 1 0 0
1694 2 24.417836659215858 10.446657067414026 14.23109378706002 -1 0 0
2221 2 24.272563617401634 15.411417749580885 9.107950321410593 -1 -2 -1
1908 2 24.760522000172564 12.73803526307814 10.50843558609257 1 1 0
1511 2 22.98074669614128 12.564585351451946 8.017671653562962 0 2 1
1714 2 24.370451938224846 13.01205433593687 13.546160390373714 1 -1 1
3460 2 17.75023986643029 10.670716397476985 10.894722118497919 0 2 0
594 1 24.023935185109796 14.72651440806471 10.8761755059931 0 0 0
1484 2 23.976656821256213 10.312264719032125 10.053423785455275 0 -1 1
3308 2 19.942572111869264 10.961145701368409 8.326860005027816 0 2 1
1729 2 23.38206124189179 9.284148619096404 13.334047581371511 0 -1 0
2410 2 20.94370564303125 15.791630357773611 14.08417208131934 1 -2 1
2098 2 23.189836667014607 13.945151735432768 14.190388164310432 1 -1 1
3204 2 18.934752254202884 8.81645971879429 13.04848328491765 1 2 0
2651 2 23.218793786530853 9.515304367279063 11.3528481070324 0 1 0
4091 2 22.170093587085148 13.787898900430251 10.43122475676367 0 2 1
739 1 20.49325961197019 11.981099557832446 10.488122744756996 0 -1 0
2452 2 22.27707847685225 11.922436329537137 12.423678023125849 1 0 1
3732 2 23.039474487315733 13.505464262350424 11.970469743273583 0 -2 1
4249 2 20.360769223615083 10.330758835931276 15.122787837862484 0 -1 0
4173 2 21.413804202928244 9.436348244000687 13.883124563025296 0 0 0
1921 2 22.072863110412975 10.293449604375985 9.792033172480652 0 -1 -1
2086 2 18.453111914108195 11.049426986053952 9.246014574805887 0 -1 0
1212 2 21.9748245188482 10.22017128048924 12.4638974398788 0 1 1
3542 2 21.544430264103628 9.329005683207862 11.06033809351594 -1 0 0
729 1 24.40751701857903 11.47790853695273 12.040366577216496 -1 -1 0
260 1 19.16692027456831 11.01965179278895 12.360451473513493 0 1 1
1096 2 20.077871693069625 15.578399628790962 9.999713015704257 0 0 1
4004 2 19.53445439590196 14.05299923158418 10.719476443827473 2 0 1
4125 2 21.785115920415443 13.114684209517963 9.07506709736283 0 0 1
2268 2 23.175417544873927 11.787542320774355 13.771916869241435 0 -1 1
4240 2 24.00867855717447 13.626436563895766 9.237027605688619 0 -1 -1
495 1 19.1894719382164 14.995564512641861 12.694604521216176 -1 -1 0
2351 2 19.090256562798217 12.869534411019213 13.877828049692301 -1 -1 0
171 1 25.347011012820264 14.029020034461178 15.267494016868055 0 1 0
4118 2 25.48529678010345 13.245282867806644 12.357305860870344 0 -2 1
3143 2 19.388003579485915 12.993699261143517 12.049614333508316 0 -1 0
3141 2 27.15063884209847 8.989118551495196 10.495035307597764 0 0 -1
2505 2 31.35481095090272 8.314771177857525 13.721681968256705 0 0 0
3944 2 27.11516795251584 12.833714021061441 14.740086195772491 0 1 1
1205 2 34.780352804841094 14.129847305244322 13.376103161232088 -2 0 0
3941 2 31.259947464267306 14.22524320948798 15.205552444461812 -2 1 2
734 1 34.331816942779014 15.624542654327248 15.110157781203647 -1 0 1
3311 2 27.598576450875413 13.772528863618113 8.643431435888035 0 2 0
1379 2 31.47802599175053 8.51249443935081 8.101367929481599 0 0 0
825 1 28.156872169395633 8.251965582542338 9.018667254594956 0 1 0
1889 2 27.71594320736314 15.39512037252205 8.256726013507254 -1 0 -1
1071 2 32.704363091461744 8.746491170751044 9.602150143282282 0 1 -1
410 1 33.82359761363749 8.759277438441067 13.288492259649086 0 1 0
3937 2 27.943692812994374 10.605660745896273 12.291754720701059 -1 2 0
2542 2 26.249926754131764 13.509985626396174 10.873848459850654 0 0 0
2894 2 29.588091250278072 9.012872441682877 8.0095100711419 -1 0 1
1436 2 29.087304788890098 13.562688386347066 11.34666916665196 0 2 0
465 1 27.752129102420653 14.799391234552452 10.373182483739013 0 -1 0
4316 2 29.284015882509664 15.222159614566207 13.489071067107417 2 0 1
1315 2 29.190119846555497 10.719093409892388 13.60154555408834 -1 2 0
4116 2 26.188309349157517 10.269667797498945 12.23650841908855 0 1 1
949 2 28.66159269430811 11.847971692259899 11.450905105261008 0 1 1
2276 2 33.91240220336296 13.421669305536714 14.863652098328604 -1 2 1
3358 2 32.60519266696417 10.053388701710182 8.191245790506052 0 0 1
3808 2 33.67340647434477 13.153898173442116 12.610137347140927 -1 2 1
836 1 28.785526473652364 12.716193350530679 13.281055523114768 -1 0 0
2624 2 30.750380422835676 11.04515818967841 13.686297438403157 -2 1 1
470 1 28.13652207566804 8.651743881254038 13.120738162500947 0 0 0
849 1 31.17982297328061 13.480611189813391 8.503634122422968 0 -1 0
3190 2 31.924173476101984 11.418753344820884 15.088220255594447 0 0 0
83 1 26.41474496890189 11.481592460363428 10.280789190888134 1 -1 0
1970 2 32.41313011720908 15.56814990139941 14.32136717958857 -2 0 0
3272 2 29.60191170790109 14.16239786410596 9.507764617747524 0 1 0
3523 2 31.821616046397825 9.305656822091205 12.321291795249744 -1 1 0
3848 2 29.690385437834504 10.293756428575703 10.472296855038138 -1 1 1
229 1 34.493314575483566 9.077882593297788 8.764604963822533 -1 0 0
1123 2 34.389922251311674 12.59346748018895 8.824014113679453 -1 0 0
4213 2 32.24217780281204 14.780161197516598 9.737396054141044 0 -1 0
3129 2 30.749699605383373 15.316962706586683 14.236813566168147 0 0 -1
2173 2 26.969549595471076 9.961400257595258 9.040406610819327 0 -1 0
4050 2 32.45096820517888 10.410765349339957 13.610701812147237 -1 0 0
1525 2 30.676155662907256 12.505466620796323 14.416688152001909 -1 1 0
2988 2 33.23525740756084 8.445657503181451 15.128916496483386 -1 0 1
1901 2 33.42297036479134 14.193674790649801 8.699295257059326 0 -1 0
3035 2 32.56843330455639 14.642864813960786 11.28481504544536 1 0 -1
2471 2 31.923999746633097 11.632840410447926 8.709430711250002 0 -1 -1
2090 2 30.26184582862795 9.053741715831961 14.63043274234743 -1 0 1
4281 2 27.695363529091377 13.019917488701871 10.230520922285917 0 -2 0
807 1 32.98814928493083 11.01483786048329 11.887144120992591 0 0 0
1741 2 30.95165569535578 13.119861176533274 10.612476567504363 0 -1 -1
2735 2 26.669414005513385 13.843164225421186 13.385938852339923 0 1 0
1536 2 28.741549024276033 10.436023800731805 8.973301656564027 1 0 0
3857 2 33.078634009902984 10.443084723095875 9.863700809126348 -1 -2 1
1391 2 31.240196264724727 11.374933870561435 10.319506707079535 0 1 0
2391 2 30.920349640780984 15.427236358824754 8.684472180347882 -1 -1 0
2458 2 31.70948470462205 9.757136686860015 10.703777709728056 0 -1 0
4045 2 28.159981204801074 16.070482441440554 14.421737481507757 -1 -1 0
335 1 27.05411087238837 10.557897031139287 14.59298076814035 0 0 0
3299 2 28.0128671052514 14.278206168481669 12.410665942625725 0 -1 0
1543 2 34.22486856428657 10.71426125238653 13.347808792573321 -1 0 -1
1704 2 26.250869166555578 14.962844283379868 11.966935876401783 0 -1 1
3171 2 29.259413973716867 15.865088405026633 8.892952131270777 0 -1 0
179 1 34.041059706836066 15.750500756247794 9.844041646233137 -1 1 1
2431 2 28.879551900146325 8.777036426282397 10.701587589732798 -2 -1 0
4002 2 34.17754502035214 11.448592038606 10.101940842953269 -1 0 1
1350 2 33.23440859681364 15.182680254399218 12.65915440766358 0 1 0
128 1 30.75259601154811 13.588874378503705 12.635757481148291 -1 1 0
1923 2 3.1511793355991236 23.919879416379672 8.370482807831234 0 0 1
3452 2 4.645966091823316 17.776522893987895 8.15509199616566 1 -2 1
34 1 5.683322936622136 19.627665750027376 7.953431698855489 0 -1 1
3156 2 7.773523657136829 23.976530374464822 13.752990622954712 0 0 1
3234 2 8.564380125905272 22.608806832923648 12.508073046808938 0 0 1
2165 2 5.611485760389057 18.53802081934503 14.550792527714842 1 -1 0
497 1 2.510899934164785 23.102726073004632 15.1474288536655 1 -1 0
899 2 1.4020542596980612 16.60396960957256 14.371039399738875 1 1 0
4246 2 0.4558724131131817 22.267746973828707 14.105642274052808 -1 -1 1
3168 2 8.276708895114949 21.313549080332017 11.000654822776072 1 0 1
3772 2 2.6450970981778754 17.405946693458887 15.17346541223017 -1 0 1
8 1 7.477748867732367 20.608596139203847 12.60473923582077 1 0 0
4271 2 5.029930870203595 21.902711904186056 14.309144189831438 0 -1 0
599 1 4.814404600563133 21.147064754454135 12.10104737573687 0 -1 0
1643 2 5.352396223835894 23.336266687716595 11.517240503259083 1 0 0
2455 2 1.9842601274213274 22.75937759867442 8.68447311531999 0 -1 0
2670 2 4.941337516308089 17.503799101379833 13.372926135063063 1 -1 0
1774 2 3.6080008939176937 19.260351099108505 8.702082238192515 0 0 0
499 1 2.4147720641617676 21.137845784035157 13.341903703385851 1 2 0
1743 2 5.840457181715151 18.98526545652816 12.869680623704337 -1 1 0
271 1 6.066079368830947 17.869554308869212 11.227938838751555 0 1 0
806 1 3.1575108345459366 17.36185701324542 9.802518399089193 0 0 0
4229 2 6.65389780033677 21.228094540055707 14.415872748019558 0 -1 0
3915 2 4.2934245875357675 17.2270181412799 11.578586766796656 0 1 0
1307 2 7.254856645594271 17.6416275863508 9.24299693227783 1 0 0
3354 2 5.948364067845099 19.89328138161835 11.272746089082478 0 0 1
4282 2 2.452414194006977 17.074665851949895 11.636556236250353 2 -3 0
1099 2 2.5463287429578205 22.164002856715044 11.601190181335234 1 0 0
3807 2 1.9867564306045007 20.591758397036728 11.173493382153497 0 1 -1
3906 2 1.1627311159927203 17.914321885746062 9.840777942398262 1 0 1
3681 2 1.5882993863190817 16.18705572580287 10.134177485566351 1 -2 0
1825 2 1.7984110091797618 18.413763724027127 14.083423585090904 0 0 0
841 1 3.5254324520608766 18.838886813586605 12.361523298666675 1 0 0
2557 2 7.618208504795827 22.61796943803722 10.122899450179272 1 -1 0
426 1 3.1969836091590413 23.295445477432708 10.380726027516845 0 -1 0
1330 2 8.199485527360677 17.089785440837566 14.755586592797158 0 0 1
3435 2 7.792274739692716 22.335324932592854 14.215516314124894 0 0 0
1942 2 8.92327304087338 23.03952252745769 10.918810966395634 -1 0 0
689 1 8.198271204651178 19.29732708543274 9.0635962946402 0 -1 0
2483 2 6.033462568086805 18.612495741254826 9.587875200396052 1 -1 0
1141 2 3.1912448683700703 19.658854607340253 10.290970842572124 0 -1 0
434 1 5.653774492910646 22.422241308455952 8.613304622171412 0 -2 0
692 1 2.0356943438855817 23.75113166463361 13.114686167557778 1 1 1
73 1 7.740223951423969 19.041158078558638 14.22601800744468 0 0 0
832 1 6.226762645652359 22.881268299279043 13.113401896066156 0 -1 0
2473 2 3.8726565750279653 23.070627385467752 12.213625383662038 1 1 0
455 1 8.505545404580475 16.69680937824367 10.911217545401207 1 1 0
1808 2 1.270301606325504 17.83987446768399 12.596617332318626 2 -1 1
3896 2 6.681294538762644 21.984639714052193 11.384658375518558 1 0 2
185 1 1.8053090555907398 19.459692020777872 8.99472477261709 0 0 0
1820 2 4.8429271623927415 20.10229459593588 9.737291346616944 1 1 1
3038 2 1.6495033812585662 21.212933530449632 8.265965480640673 0 -1 0
1128 2 2.0173201844759285 21.49352197568733 9.781824362287628 1 1 0
3328 2 7.701346884583938 22.50028207899738 8.303566106935142 1 0 1
4030 2 3.9811534757305536 23.483729661561263 14.038575584895096 1 -1 1
550 1 1.0285976287033758 16.90334711404924 7.900384311133112 0 0 0
1225 2 13.573722625820828 17.81822998855222 15.249529218589943 1 -2 0
536 1 9.079324673889385 16.678041312345293 8.234484460814512 0 1 1
3829 2 17.451895663050486 22.480557273704164 11.700345966939668 0 0 0
97 1 9.962326992705975 21.377140661642592 11.967110496277293 -1 -1 0
514 1 10.693221139039204 17.414126426054494 14.992771412122979 0 0 0
1593 2 10.134873087131913 22.206327953944815 13.790785371504878 0 1 -1
1772 2 12.417878717981528 17.091526985185865 13.899151660675646 1 0 0
4183 2 13.288632090394145 16.32965618230974 7.956918071186862 0 0 1
1792 2 15.725758651695967 19.833488361590128 7.981565897869066 1 0 0
1016 2 14.143808935213695 19.368858450156985 8.49247251496327 1 2 0
2377 2 15.758233712775855 16.676211027726872 7.897034287443676 -2 -1 0
887 2 14.068333814395396 21.04277231023208 8.511962236559715 -1 0 0
2265 2 12.397102028636544 19.94730350279709 8.2445728162645 0 0 0
771 1 13.072995952203811 23.6220134110988 10.188672069485289 -1 0 0
639 1 11.286798046757008 23.58649962827201 12.369773550652912 0 1 0
4016 2 12.37400372490082 20.070484755778672 13.882609009163353 1 1 0
2138 2 10.775785798595225 23.756972445808138 10.109595060913504 0 -1 1
3868 2 15.650151976469886 20.015415763105544 15.01242214689497 -1 0 0
2791 2 15.746201155601065 23.803175993606537 13.006185364154518 0 -1 1
2185 2 16.48197821828617 19.843788159090238 10.989508122136195 0 -2 -1
4038 2 16.479572246287002 20.9732452896978 12.269550726843898 1 0 0
3062 2 11.049752446460463 20.926496249987792 8.888253350546501 0 0 0
3640 2 16.4519901501402 17.452315289229112 13.260678795009628 -1 0 0
2592 2 15.311963360872763 16.303741509551237 10.893478157275098 0 1 0
1602 2 14.102006969110192 19.359726804690993 14.938792889929204 1 0 0
614 1 15.24690675439777 23.19519809612828 14.817203994961906 0 -1 1
2081 2 9.832712001409341 16.146615300341836 13.707531941259141 0 -1 -1
288 1 16.119463210379344 21.865614763074767 7.990447060855802 -1 1 0
1351 2 15.16576589720407 20.306329222506307 9.55158128365263 -1 0 0
2926 2 11.362961047900212 22.7792073457423 8.974146144798757 0 0 1
3453 2 12.496643390176748 23.573059736705588 15.154838948385583 0 1 0
1685 2 15.634571901936399 17.060925619605534 9.454857770012788 0 0 0
2371 2 15.068608116894149 22.286862830664624 12.8254534157619 -1 0 -1
1575 2 10.601549963654648 16.974316269573798 11.211007153722097 0 0 0
3579 2 16.38226684039306 23.61984404015223 9.265117233667915 0 0 0
1719 2 13.229818332581434 18.038122039637592 12.581648958188858 0 2 0
1454 2 11.164956517383143 17.64065576452664 12.696480757128937 0 -1 0
838 1 15.682238882747708 22.608769537537135 10.884012495491728 1 0 1
1594 2 16.29650727447411 17.540361741735026 11.337793006060743 2 2 0
2227 2 13.811259371689353 22.42108802430178 11.71038473459004 0 0 1
122 1 9.355479740839192 21.696191418975964 9.198793281665194 -1 -1 1
3372 2 12.112995164636018 21.67123387675675 11.494071268475317 1 0 1
4170 2 9.198360017411462 18.230498106916116 11.745607487202081 0 -2 0
2324 2 12.305342828064191 19.41471198206704 12.305188324742822 1 -1 0
2554 2 12.804928635221776 21.9131968797033 8.86252262193877 -1 -2 1
1737 2 13.756850039726585 21.69571153899446 10.274249286511623 0 -1 -1
873 2 17.01927020911925 19.26149273060171 14.843701363360571 0 0 1
743 1 14.467811694168606 18.58409417253729 10.683127801271652 0 -1 0
644 1 11.938319887240425 18.349922188531757 9.96724594167464 0 1 0
4260 2 16.6671168843707 21.348768148965995 14.344905066077956 0 -2 1
995 2 11.568132836584345 20.30526900339526 10.999799609761004 2 -1 -1
294 1 13.13887629564278 22.384487273494692 13.587942018541824 1 0 0
2142 2 10.64479406629103 19.592222497639597 13.006765876180612 0 -1 0
1339 2 8.949973231025263 17.112607302113922 13.086205261122165 1 -1 -1
1289 2 9.09692154796392 19.39841673177797 12.938333988504496 0 0 0
2696 2 9.833676208206938 18.21828232819214 9.971427562593362 0 2 0
1364 2 14.920488320362606 17.447981868559616 12.313377603106538 0 1 0
968 2 10.838683693743379 20.761542941489722 14.545567686311982 1 0 -1
3739 2 14.173353743829454 17.711057064004628 8.63400138085159 0 -1 -1
3658 2 17.432913732012626 16.966991236335396 8.76291621910056 1 0 1
3167 2 10.156967887930014 19.89444317230253 10.355214071934578 1 0 1
618 1 10.633903785370794 19.049862652868995 8.061276369904029 0 0 0
3335 2 9.690016659757505 19.334039956397554 14.687052942590162 1 1 -1
2877 2 17.639752613088145 18.75354502467377 8.596739833371618 2 -3 0
2571 2 20.771688519621733 20.00811206886751 15.273075250641622 0 0 0
915 2 22.337514079794747 19.896152935678337 12.434241599567457 -2 -1 -1
1281 2 17.737218657723965 16.417671799134425 11.650617574694248 0 1 -1
3728 2 22.121216524935893 21.142903442776998 10.395272604898974 -1 -2 0
2951 2 20.972731147547428 20.392503467260873 9.186289066456848 0 1 0
1039 2 20.641818156466144 17.109113519182344 10.011954590213902 0 -2 0
4212 2 21.88623035832302 18.73770461640106 8.535400727423 1 1 0
3034 2 20.124602476263174 17.050949018865218 12.706216448010025 0 -2 1
4139 2 19.681280759592156 21.06275443604961 8.317190504586279 0 0 0
3148 2 24.77735433997428 19.585682314442444 12.827534372853487 -2 -1 1
3341 2 19.146689577210786 20.339832345294262 13.052889404913225 -1 0 0
177 1 18.03423830933109 18.24010967725099 10.755832823054282 0 0 0
1272 2 20.377107717271315 18.830492344664627 10.300492665628173 1 0 0
2503 2 18.8123400376968 22.685377074216163 12.787887340859045 0 -1 -1
1396 2 22.872405713664165 22.654416880055805 10.943760419341988 1 0 2
2121 2 25.044613533308542 20.7130917610624 10.903111213563422 0 -1 0
1087 2 23.667963486086332 20.105053681714104 10.755506060480927 1 1 0
3338 2 23.48656184401836 22.88871389950647 14.091204206459528 -1 -2 1
767 1 19.248691754192503 23.400597698280606 10.437449503420503 -1 -2 0
2050 2 21.952125863959672 19.001483560074114 14.141937220977745 -1 0 0
3806 2 19.4761277307035 19.82128464312632 11.615580783133382 -1 -1 1
339 1 24.826106847702494 18.18008898986036 11.518870976074746 0 0 0
2844 2 21.977189025825712 22.177855856525504 13.739433453322672 1 1 0
2690 2 20.539969194214 22.540452392196556 13.078853495669161 -1 -1 0
1077 2 21.15965177748474 20.00798449045771 11.358404358848878 0 1 -1
3624 2 23.532951251508344 23.501797403482797 9.53542320031247 0 0 1
2077 2 21.439732035425216 23.868481941031476 9.884861449595894 -1 -2 0
2688 2 17.970395273137854 21.384400391748564 8.57994380561669 1 -1 0
1370 2 17.995414311311468 20.191658795290195 10.315986412722115 -1 1 0
2191 2 22.95142106759288 23.180663451337985 12.507027235071373 0 0 -1
3879 2 17.944161716771475 21.330875521907238 13.01931023493246 0 0 0
2585 2 18.500164022463245 16.232501341565232 10.250004478908215 0 0 1
982 2 25.859726129161153 22.208391912609628 12.136669251279882 0 0 0
2657 2 23.581406559609842 19.169101725713695 15.058075732345577 0 1 0
448 1 18.654498252029875 20.172380767132623 14.669945219416778 -1 1 1
4147 2 20.920214184159587 23.765245874634708 8.210445582923704 0 1 1
1784 2 21.570400954801528 17.330243970487103 13.689301390139377 0 -1 1
3773 2 25.027252809849056 16.187179381753918 11.881613535688723 0 -2 -1
649 1 23.79275720924218 18.56063243531395 7.84583690041198 -1 -2 0
4305 2 22.7618216002437 20.100701636121656 9.018062054916548 0 0 0
2408 2 19.044473630578683 21.70560806125485 9.923476980332563 0 0 0
41 1 20.071484269456896 18.286073654100257 8.490304797791296 -1 0 -1
47 1 21.93575775051002 17.883201120894554 11.689947350648145 0 1 0
2863 2 21.027932369271436 20.578674047740904 13.817399662396578 0 -2 0
377 1 25.4410586620582 23.043328667625552 8.786497067474517 0 -1 0
2216 2 20.983478571028478 22.56843872532258 11.095086352071542 0 1 0
913 2 17.902725565018276 18.13815621648748 13.831116706392216 -1 -2 -1
1905 2 23.196046457331686 22.95868139082627 7.980785685208839 0 0 0
1489 2 19.367206644872223 23.878103292487225 13.90682917226015 -1 -1 0
3437 2 17.623415529425785 22.781880922671306 9.765881357626727 1 1 1
419 1 25.856782580508515 17.158216993877062 8.492709224157444 1 0 -1
4097 2 19.1049348919888 18.51324472733183 12.98569115547748 0 1 0
480 1 23.885375824935714 21.400663333394434 12.674891327454885 0 0 1
1294 2 23.924385075332005 18.148260445345386 9.670680927341252 0 0 1
3224 2 23.14033572731216 16.736525882812202 10.729040688627027 -1 -1 1
3037 2 26.11651528910907 19.412066930437703 7.9229696538620695 0 2 0
4218 2 26.04250101943649 21.785595657633863 10.372909110297584 1 0 1
597 1 24.672346558490048 17.58790518638986 13.62898527707996 0 -1 0
3865 2 23.230713514852425 16.43057042773073 12.504232664260197 -1 -2 0
3112 2 24.54966415462068 20.705691032508305 14.318058837015773 -1 -1 1
3320 2 25.674938493368863 21.940826311156762 13.74614635701939 0 0 2
3667 2 20.76295996639269 16.114295749792447 11.337329876034739 0 0 0
1622 2 24.682816310703767 16.524972348537368 10.162053803357162 1 0 1
1545 2 26.898215435436462 23.60912108557409 12.525920535511288 1 -1 0
202 1 32.16154467024654 23.229817599086438 12.314953314486063 1 1 0
726 1 29.417149679741108 17.85277485342847 8.704403601418989 0 0 1
3307 2 27.521502113492957 18.473126672477918 14.582315622659726 -1 0 -1
493 1 34.614952146369546 20.135982611687552 14.01762589793021 -1 -2 0
3507 2 33.080724642796696 20.960203509114145 15.01049868735529 1 -2 0
3965 2 34.70196245797909 20.827523041855798 10.309745361773086 -1 -2 1
2128 2 26.380936044188164 23.400209717765705 10.673897025409662 -1 -1 0
994 2 32.9247383946895 17.421311626462874 14.82603544282671 0 -1 0
1135 2 33.803048883105504 23.7738080195088 13.529097441595718 0 1 0
3611 2 28.042580518260763 23.71186592248447 13.520366725020416 0 0 0
3083 2 33.148352253823134 16.844494009673213 8.221184153332912 -1 1 -1
1285 2 31.725605524352304 22.6442879877086 8.860043006754081 -1 0 0
4096 2 32.10359060620918 22.010572439010552 10.331237944357204 0 0 1
3364 2 32.00582602320405 16.53843751654515 9.450367962705926 -1 1 0
1093 2 31.844998189862306 17.22236047073038 10.969329255970472 -1 1 -1
1057 2 34.24473284349163 18.327298342401242 8.700276962241032 -1 1 0
2884 2 29.12249552389294 19.002860260139457 15.032795362475278 -1 -1 0
61 1 31.574451529326517 20.503524630575235 8.645070071503213 0 0 0
2456 2 34.571649371483005 20.540618314394557 11.974542345718602 0 -1 0
1046 2 34.085604788391535 20.018250285111357 8.73893470201358 -1 0 0
3907 2 33.405807069637135 16.44666022963488 11.45782654619526 -1 0 1
1422 2 34.60573462985212 17.686051122172564 11.361751243797169 0 -1 0
2666 2 30.51216647965172 16.30927914143021 12.888778946094817 0 -2 1
2627 2 34.341379391982116 18.926835890359385 12.503069888399514 1 1 1
3164 2 28.926117898683678 16.459583821133386 10.464981431340625 0 0 1
3480 2 30.2066455533798 17.123366508989108 11.46830143534379 -1 2 1
1376 2 33.658159902089935 21.743182866970926 11.45286869678452 0 -1 0
2537 2 31.29953186702701 16.93897074967161 14.270069828910172 0 2 0
320 1 27.03383076120839 17.518401270207562 10.587765846489722 0 1 0
1320 2 26.67205005617052 17.082910122638566 14.135240424569806 0 0 1
971 2 31.27075886492794 18.884680455465443 11.331891751561537 0 -2 0
35 1 30.40971333727818 22.473328481820296 13.871001082398742 1 0 0
3445 2 27.70237963201941 19.23961807840457 11.59133979240897 0 -2 1
474 1 29.81852063998521 18.88842329827675 12.664884352820305 0 0 0
2262 2 29.03155351142474 18.32947070193486 11.051814237935911 0 0 0
4161 2 28.037855153436475 20.61119223852093 10.024337656041997 2 0 0
2053 2 33.04890086954822 18.790802383225085 13.566412010483578 -1 1 0
2625 2 26.796022831680478 18.35854850369791 12.885454890421185 0 -1 0
2272 2 27.528036724127926 20.128170126984507 14.6710166059672 0 1 0
1953 2 28.521045680615018 20.58292518847145 11.944870150217797 0 -1 -1
3996 2 33.31566175742152 22.107146857540904 13.259973918549504 -1 1 1
3675 2 31.66570560248037 19.77416045078352 12.496907323362887 -1 1 0
2852 2 31.86870995526385 21.36917450856358 13.386964363197736 -1 -1 0
1314 2 27.6730123933221 19.192584313517557 9.060998297294798 0 -1 0
1326 2 30.26340788083657 19.316256098823764 9.951471388122618 1 0 1
1082 2 31.493990543154815 20.394823296120897 10.608175512230716 -2 -2 0
2691 2 28.44968672054236 22.970112488984036 8.367416408814893 -1 1 0
962 2 26.190189382299305 21.114278856163146 15.126623720336593 0 -1 0
2590 2 29.00651618202411 21.896995251394266 10.798506231460617 0 0 1
3188 2 30.516236947140385 21.894306831011974 10.207814652683426 0 -1 0
3369 2 27.555456557334047 22.41267426585901 9.729904809409657 1 -2 1
1646 2 29.053746832504977 21.350387465911766 15.042334359374948 0 -3 0
2386 2 32.91949808223437 17.83236222522236 12.214457016757331 -2 0 1
2397 2 28.60370498720593 20.956426877615137 13.35533757180184 1 0 0
3 1 26.768020279638826 20.27333879759916 12.749714078136494 0 -2 0
161 1 33.76858936333451 22.13801902596652 9.061492514837532 0 0 0
3968 2 28.444497551478914 23.578178542308088 10.975034231497341 -2 0 1
764 1 30.667735981522664 20.186226498003677 14.501318629705604 0 -2 0
2965 2 2.7987647920881122 2.594187507214774 20.536283350960737 -1 0 0
1408 2 8.581054917737594 2.7617471312396757 21.03900051320015 0 0 0
759 1 3.6708292318803095 0.9129441918588781 20.38967944580987 0 0 0
3578 2 0.5533676440208983 7.04489867082698 16.707885008540988 1 1 0
1975 2 7.420356268467604 3.864751665808986 18.21522863428942 0 -2 0
1753 2 1.3424432494223848 5.8765382546087235 19.544794307287027 0 1 0
1981 2 7.506487203916902 8.02164520469102 18.58882874970406 0 0 0
1374 2 1.3947261908653623 3.7315908554447734 21.38252596429204 0 0 0
4190 2 5.275612855135545 4.016130261023346 16.1537631201417 -1 0 0
2278 2 4.74574381173975 2.253892820316111 21.537514834598703 0 2 0
25 1 3.3722695685601183 4.421554215574685 21.894260208773908 1 -1 -1
2072 2 4.134428650649719 3.459038726537451 18.299984424538806 0 0 0
388 1 7.822357674380205 4.331555234856492 22.67419176737468 0 0 1
1947 2 1.4052302860824446 1.4905321989649938 15.543665343398308 0 0 -1
2827 2 1.663457931644001 2.27681484967329 16.96514984481796 0 -1 0
121 1 7.189762689796698 7.323776928265675 21.59299393786587 -1 1 -1
1467 2 0.6461206008907111 4.603790729385245 20.217934922412617 0 0 -1
1724 2 6.724844393432256 2.644718601438205 16.795984017344995 0 0 -1
127 1 1.8469424877586609 3.8535938259818976 18.2699993031226 1 0 -1
421 1 1.8923551524038134 7.73543575697993 21.22983220954285 1 1 0
424 1 3.3509471971710996 1.2131591725982922 18.302392223781208 0 1 0
2580 2 6.212491663052299 8.131481797986545 19.922588805233076 -1 1 0
1167 2 5.1754024353983485 2.4596561579885052 17.55243019512461 -1 2 -1
3875 2 1.8530239178797947 8.021980422758679 17.45251450273137 0 1 0
2357 2 4.779799546489443 0.9667220107511197 16.30961895768257 1 1 -1
1880 2 3.8199432463893292 3.1901714364545612 16.574854430867607 1 -1 0
479 1 3.0798584942941294 5.863826630578353 18.498797341002017 1 0 0
113 1 1.6919676985385053 3.7153401346348605 15.645948199507586 0 0 0
3240 2 1.4252977101677105 1.215629544276125 19.916361356239435 0 0 0
4120 2 7.342869475438291 5.624009279833795 17.63619337067808 -1 0 0
68 1 5.54270262749318 2.7832709793726016 19.55108280776566 0 1 0
3776 2 7.53922402285089 3.703457122141776 19.982159255486398 0 0 1
3133 2 1.3743851154151632 4.900584063913259 22.34880720381731 1 1 -1
3314 2 8.572410145591725 0.3739242131657362 17.59133040417903 1 -1 0
1463 2 1.3997510617088824 6.905849888020908 18.384840760130505 1 1 -1
1552 2 1.8426190823415287 7.7090208396700755 15.84226405660249 0 -1 1
1193 2 2.2391886216863517 0.31060728210220256 16.886289598462533 1 -1 0
586 1 7.922997855231424 0.7158348441359479 21.469398530800706 1 1 0
3986 2 8.724204200334507 7.029089014647827 20.26541810280388 0 0 1
1085 2 6.4527783189146115 4.966285056146279 19.303997142316895 0 -2 0
2729 2 5.644641207377458 6.529979109023878 19.447269004730224 1 -1 0
592 1 4.542927628641875 7.26122308284095 21.549547115732665 0 0 1
473 1 6.389100904130544 2.184794333198055 22.41871537108122 1 0 0
1076 2 4.2388006991098015 5.515144523619652 20.352480815038028 0 0 1
2618 2 3.845957602064466 7.450383648120736 17.309308883058556 1 -1 1
1277 2 7.777299783225641 1.339337581005339 16.22132700787978 1 -1 -1
2825 2 0.8295622972533562 5.857079058688899 15.722213451686427 1 -1 0
3487 2 8.691293569745646 6.682325309576921 18.630723211672183 1 1 -1
347 1 6.148685663593075 6.41616504198665 15.91756530256993 1 3 -1
405 1 3.2276016741597253 7.909421520147203 19.239621163605573 1 1 0
2375 2 7.63660189039717 5.503166153403838 20.659486896519205 1 2 0
3044 2 1.0538900889480036 1.1280631728938877 18.03909975100883 1 1 0
3279 2 3.2886037578815794 4.160656619698221 19.812504179007803 1 0 -1
3284 2 7.67044616680619 7.148831967843029 17.119579010036116 0 1 0
4272 2 6.259092034579665 0.7554301390704572 20.564965575869213 1 0 0
1268 2 6.934929573229141 4.388555958400593 16.50386965842622 1 0 -1
3451 2 12.656287756013706 3.4385540273211532 15.431638832432911 0 0 0
977 2 9.331119633433127 5.33069817979805 17.840297721873753 0 0 0
3106 2 17.28312999280355 5.060623988770123 18.880404138242643 0 0 0
2973 2 16.126227084171454 1.4575813033725942 17.87803291023214 0 -1 0
469 1 9.569680353402507 3.664322217931016 19.064354779394336 0 -1 0
1502 2 17.22661663160692 5.258836416309673 20.754268239668292 0 0 1
2134 2 12.168340960828761 1.779581763553002 15.404170119783764 0 0 0
1946 2 12.026100605211196 6.492664422478091 16.41115594850195 0 1 0
354 1 11.633829549842314 4.160229302734967 20.809558680568735 0 -1 0
1777 2 12.049213394090366 7.169655797877867 20.627406467398774 1 0 0
374 1 10.434578687967667 1.4417516795562708 22.20214318104393 0 0 0
3815 2 14.575318850473954 3.870989831400136 19.36835809084759 3 0 1
530 1 14.233402277368395 7.153361747806652 21.69694751840716 0 -1 0
2059 2 12.142940356249099 2.2214036517660665 19.808243984064656 2 0 0
3347 2 17.515929773176342 1.2638579216854806 21.23843649276003 1 0 0
3498 2 12.894256387594897 3.6533634865857327 19.37480155542818 0 0 1
910 2 15.773994461832949 3.1043129906438316 17.88620844101461 1 3 1
3102 2 11.890185236371712 4.78178646509453 16.579509337601355 0 -2 1
3540 2 14.652817268078394 1.831725856142141 17.484805029772083 2 0 0
2202 2 14.425163600411931 2.602867977484185 22.127215331739414 0 0 0
3140 2 16.257085119025078 6.029696306128888 19.829510500532813 1 1 1
3976 2 10.274239982057042 5.534653772494944 16.35010892784629 0 1 1
789 1 11.580855464035901 7.652013257479423 22.5270885572516 0 -1 0
4082 2 9.439157788842865 4.211348093764142 21.065293698446418 -1 1 0
2287 2 9.355180059918252 5.556278032430831 20.04554310940071 0 2 0
317 1 13.910799064467765 4.315156930876931 22.51521210208443 0 -1 0
979 2 12.897069975816626 5.764947168478656 17.793511287127963 0 0 0
4103 2 12.602639805241058 2.4028282171051596 18.20071688856612 1 2 0
415 1 10.436730328504883 1.3336951695528145 17.902166760771383 0 0 0
2595 2 17.098358924591047 1.619539664074576 19.44259703624096 -1 3 0
3010 2 17.369358622472063 1.2086777006756015 16.469809484959253 0 2 1
731 1 17.23840445615444 6.140312803936839 15.98758975286109 1 1 0
3309 2 9.443628697285128 1.4913235273584275 19.75586861223087 0 0 0
2681 2 15.388473528827014 1.004586583277105 16.284918834916944 0 0 1
4054 2 13.348563246446888 1.1538415392164052 20.86119349519955 1 -1 0
264 1 9.855026980663276 7.54250041432975 16.93462153647289 0 -1 0
1220 2 10.187525964023994 4.376590414830574 22.46402713026255 0 1 0
2154 2 13.866539500208168 6.713190450938821 16.78391121043793 0 0 1
3705 2 10.561165771001775 6.6404356252310865 21.027742538921867 2 2 0
1048 2 15.917613549723617 5.244953736842575 22.207690617217846 0 1 0
3884 2 10.827486938259977 0.6475894605491723 20.03714979005527 1 0 1
104 1 11.19585352123121 5.560295862618769 19.086324443306093 1 0 0
2834 2 13.485738014467556 2.9533706181983064 20.779456159673177 1 1 0
2933 2 15.401180830182772 4.513047128550697 20.4886931238804 1 0 0
396 1 16.078473792936755 6.769287537615214 17.9639777245523 0 -1 1
590 1 14.234042119984723 5.990972384674692 19.134715232542003 0 -1 0
1931 2 11.027288659867219 0.4719292836321999 15.780762257540346 0 0 0
1433 2 12.52795603281735 7.5496878541082815 18.956005921939482 0 -2 -1
1231 2 14.263186009816657 2.6120615822408912 15.790669902907997 1 0 0
1410 2 11.73155569629512 2.888538776435158 16.854564532634146 1 1 0
535 1 13.771646306789046 3.7682077777207916 17.51766208813907 0 0 0
1250 2 17.51490486701857 3.4329233007762134 22.518497045313566 -1 0 1
1273 2 15.473625193000464 7.700192952258789 20.047298258979254 1 0 0
3215 2 10.553007047121756 4.139289638524531 17.361137836726748 0 2 0
3850 2 15.15732901322973 5.5910956174713435 16.711785552463095 0 -1 1
239 1 16.866238924269098 8.057693740254635 21.410179573020923 1 1 0
1183 2 16.307824280708736 4.511827029760335 17.27275136168506 0 1 -1
1319 2 25.614614622751866 6.997659973825922 22.28246493462368 0 0 -1
4220 2 20.094377458695234 4.74595669842552 22.36739109293387 1 1 0
1224 2 24.32242356966524 0.4242904779388468 22.15221277614974 0 0 1
3064 2 23.415774071304877 0.4674440791927232 19.518666782989694 -1 2 0
850 1 17.71800206907589 3.125544550197466 18.181148559544788 1 1 0
3406 2 21.19701053959252 0.2965215577715894 21.828609976505945 1 1 0
737 1 17.59575996760236 3.358829039355 20.714840747009585 1 1 0
1228 2 26.157849500071865 0.5547161628034676 18.111908201688166 -1 -1 0
3151 2 18.38571795639139 6.268938991711656 22.529758467620805 1 1 0
1655 2 25.746393485714243 0.7646470121519421 21.724411472324597 1 1 0
4012 2 19.475213958011924 5.703951730803931 17.105619554450648 0 0 1
4076 2 19.250000509506354 1.5473179494120888 20.870932400228796 -1 1 1
333 1 23.13112163624079 4.515344285188375 21.869766520536768 1 1 0
2061 2 25.881124484579733 5.275959444306395 17.145307900845395 1 -1 0
1653 2 25.805812452524318 3.0377246470009056 19.41190676303649 1 0 0
1601 2 21.803680427777373 0.7641239254202544 18.67727219392331 0 1 0
2194 2 19.77228312108586 2.8764849466514404 18.4755666313684 0 -1 1
1766 2 18.301430241598133 4.523867160824091 16.549106844449025 0 1 0
2946 2 20.852537859398637 2.0579454458732194 21.249249176258836 1 -1 1
2654 2 23.709673728611133 4.473544915831254 19.185094727170494 -1 1 0
2636 2 22.27176693984565 2.2058048305994515 22.206845866104768 0 0 0
2913 2 19.824658099671698 3.478703500345847 21.211697010336845 0 1 0
3662 2 18.657514081343965 1.59563444038845 17.631471291562793 -1 -2 1
3146 2 25.464883290202607 4.719477745068096 18.896422550856546 -1 0 0
1342 2 25.622163384557393 7.560506176203392 19.386120397400642 0 0 0
2248 2 22.962696152563325 0.8432500312640583 21.269868544892184 0 0 1
251 1 25.362942757204323 1.985990963442751 16.943146689144065 0 2 0
3180 2 22.171815709580226 6.753359405767137 21.718089301703316 0 0 1
2715 2 21.53986648896134 3.0643685031664374 16.61672331929102 -1 0 -1
343 1 24.739898768716255 4.226217264050436 15.991004026812938 0 0 0
1735 2 20.78499270287202 5.263418788886967 18.403849803514937 0 0 -1
4108 2 23.397971084403178 2.441306848982605 16.78373157294551 0 0 0
1521 2 25.158857628971948 3.568650099142399 22.162441538466172 1 -1 0
3392 2 20.017984157611174 7.310705396141031 21.013843810196192 0 1 0
4061 2 22.223426508835136 3.798308600512717 19.733983444614317 0 0 0
3569 2 25.03802425953691 5.297046289611321 21.754457591908796 0 0 0
2264 2 23.8804385731619 1.3424705438676774 18.01774018814921 1 0 0
327 1 19.26805132691482 6.436867328602079 19.17485242934321 0 1 0
2269 2 21.58989241910062 6.222175129928021 17.10085983098461 -1 0 0
44 1 20.954423522817514 5.441122137329235 20.8557438643364 -1 1 0
2103 2 22.675071675624963 4.236775673839686 16.998527422271938 0 2 -1
2676 2 23.998774175612457 5.652100951745231 17.343824384790086 1 0 0
1836 2 21.331394656051117 2.436918694156943 19.398688632468634 0 1 0
2717 2 22.76510348586126 6.3164091834062965 20.11311870211204 0 0 0
3645 2 21.668482750868826 7.014422170462133 18.706805389723808 1 0 1
4215 2 21.4781936666414 3.4989008055504747 21.19426349366525 -1 1 1
2908 2 19.017365254436644 4.498355518943383 18.175569396817966 -1 2 0
1221 2 18.914482433515737 5.156240606030987 20.905497315893072 -1 0 -1
4092 2 18.07335455444378 6.964961417491389 17.43995522080422 1 -1 1
1130 2 22.157208253727905 1.0754671427921265 17.04441874047503 -2 1 0
2034 2 21.22105286419649 3.683080980026739 18.177240828719395 0 1 0
3615 2 24.09026061434734 6.372484150429529 19.197226946868316 -1 1 0
1259 2 25.687718342673964 2.437229611647466 20.974043207183783 0 1 0
1935 2 23.967707294370612 2.279455421967524 21.27129074946872 0 0 0
3564 2 23.46945356020437 7.1873005870493225 17.629139238943747 -1 0 0
243 1 25.004311658311856 7.10159536729351 15.823655980102592 0 1 -1
433 1 22.79910640974473 7.403016125151321 15.281020820977941 0 0 -1
2435 2 29.89122231347293 1.456214386809728 22.203074375288992 0 1 0
2339 2 28.57864027323013 6.31712502996285 18.040245906446938 0 1 -1
2597 2 32.65856715174006 7.523042899947131 22.223552482184505 0 -3 1
2788 2 32.553288189429864 0.7414196141355858 22.710409274207894 -1 0 0
1775 2 30.519765776776747 0.6170260659564861 15.310665271804508 1 3 -2
2778 2 30.857650698760693 2.8879147568473953 15.7429953788244 0 2 1
1503 2 33.446109838048585 4.465018133736727 15.53320859178778 0 2 0
59 1 34.63456758872424 2.7142137867877953 20.047363649304778 -1 1 -1
4090 2 33.18175858147869 7.995329478615597 19.682092844582897 0 1 1
3859 2 34.18970877797156 5.825008714107192 20.932206892462858 0 -1 0
4042 2 32.11439917597677 1.6463855542151253 16.987231444527144 0 0 1
2385 2 31.858519044747805 7.13042391375369 19.169611262189765 0 1 0
4087 2 28.558087678845002 1.6318513986038483 19.26712729166569 -1 0 0
2961 2 34.586036676965165 2.0440569497226084 22.29199698654893 0 -1 -1
3360 2 32.54441740578582 2.094570154338121 18.713955708260222 0 2 0
4200 2 29.596885727753328 5.714227012482088 15.33366754691911 0 1 1
3057 2 29.89909037760917 4.457249808110808 21.330076332562136 -1 0 0
379 1 34.090251772509674 2.2026686150697095 16.948445367613743 -1 1 0
1520 2 31.8244121837679 6.640979651922221 17.555257179794197 0 1 0
663 1 26.333489475731184 6.147299954452661 20.459057043403657 -1 1 -1
3493 2 32.632736750059976 2.7431635623172164 20.49030884654767 -1 -2 0
3351 2 26.77172575433076 4.93967087899217 15.83921360942557 -1 0 0
3568 2 26.964082870812145 4.272827639605801 19.55629879615757 0 2 0
3760 2 26.802187606572666 5.819090919247181 18.478715767100947 -1 1 1
2179 2 27.369680081757462 2.556744165837057 20.124517638298737 -1 0 0
1866 2 26.275962563215717 7.854196496487164 21.007294418368005 0 1 0
3609 2 31.58928890108476 0.4438186668641323 19.976626676404383 -1 -3 -1
3259 2 29.212220688506928 7.648516383550056 17.508745869980544 -1 0 0
3116 2 26.951221307187716 1.945918196342494 18.523602391824323 0 1 0
1821 2 30.359007787567638 4.3287916938799444 16.212001816844356 -1 1 0
1716 2 27.837151115997575 7.253813206163713 21.78772577731174 0 -1 1
3556 2 31.892643403968037 4.240180677533101 21.477070582758994 -1 0 1
3121 2 31.482053266505517 1.0206275497330424 21.604906331400564 -2 -2 0
2784 2 34.765708566093366 0.6685007666802549 21.366800872608373 -1 1 1
706 1 33.373473843003836 6.329488833623489 16.261440233009697 -1 0 1
1989 2 30.2609181873773 6.335116993667963 18.28108541159962 0 1 0
3901 2 29.154836143888296 1.7301160271233633 15.669017853108064 -2 1 1
876 2 29.599896250604342 0.34959780927305106 18.785037722230626 -1 0 0
387 1 32.20144743555879 3.696067834185836 17.167513535206826 -1 0 0
2116 2 27.18528621083493 2.051777554432551 21.799648085507663 -1 -1 1
879 2 32.96184660238026 4.455073434477111 19.7148000134961 -1 0 -1
423 1 30.893847912883764 4.318901522889994 19.333963318393256 -1 -1 0
2167 2 28.867859929412894 2.112473025806043 20.925026652966793 -1 0 1
2861 2 34.114421168892875 3.8191214973345327 18.272392253849834 0 0 0
293 1 28.06550779631637 0.44923945465448567 17.42419779132073 1 0 0
304 1 27.44626484909667 6.981485210666216 16.4277166242162 -1 2 0
3888 2 28.507313518919652 4.826560929084738 18.79668835165049 0 -1 0
526 1 32.90018658510594 2.687791538150008 22.56966293187948 -1 0 0
166 1 32.08589374223283 6.295987718093634 20.860306580980087 0 -2 0
2588 2 33.86149788969617 7.239477241661313 17.88084619478121 -1 0 0
4114 2 30.187624305269473 6.37494038639701 20.36221248807861 0 -1 1
3961 2 29.089236569114682 7.3649991774414065 20.883057880831238 0 -1 0
2915 2 26.17432761541387 7.916088097521176 17.923676842243772 -1 -1 0
1919 2 31.170879922937214 5.2720356381746045 17.275832926260488 0 1 1
704 1 29.566346049818595 2.689975783240227 17.370559162013215 -1 -1 0
3999 2 29.102312907233213 3.4034185952194074 19.545328626035563 -1 0 1
3642 2 28.50577835243419 4.78433019395651 16.30300833160676 1 -1 1
3885 2 31.460682773714773 0.461154978117279 18.330851532306568 0 0 0
3594 2 31.253312252434565 0.2294576797426089 16.631437271517147 -1 0 1
3281 2 34.579592917446746 4.567623193147821 16.795872229080544 0 1 0
1493 2 33.844152770352 7.464929182352243 21.059477795468666 0 0 0
4094 2 1.5933325158212377 12.37459755312869 21.752276047845807 0 0 0
2980 2 7.034528640561621 10.869076985426688 20.999373224774192 -1 0 1
1138 2 4.686060306754749 11.707498802439654 22.671500649649477 0 -1 0
1687 2 7.8774628383402945 12.403250522251774 21.922311971537987 0 0 -1
1936 2 6.6270061920417325 15.391700351757903 22.28097958921571 -1 -1 0
571 1 7.085654281696721 9.804750901353776 18.82723445086938 0 0 0
340 1 3.474332042382959 10.486753104795978 15.355226129941471 1 -1 1
2771 2 3.0316694860700997 11.763436595377447 22.100266600727956 0 0 0
2563 2 1.5898795939462347 9.78853951950813 17.4492672334473 1 0 1
4286 2 1.5624080335176431 13.792828627108236 21.003045005837368 0 1 0
2806 2 7.741475524410784 10.063594337201238 16.943922221692905 0 -1 1
804 1 3.9779865399511296 9.433534776785294 21.900153699778507 1 0 0
652 1 3.0894151430541794 15.256576932972685 15.68665077742907 0 1 1
2932 2 8.861402709012316 8.485096379907 20.99443918667693 -1 0 1
4189 2 2.6152864615723828 11.273990146826218 20.76492549050609 0 -1 0
2401 2 0.904826063704366 11.049529932280315 16.764629717721867 1 0 0
2575 2 7.153428267122805 15.84456700696623 20.493943917580243 0 0 0
3864 2 8.479825577569729 12.834601908901526 18.727420866780736 1 -1 0
1665 2 7.818685104190559 15.853425102319484 17.703612725737635 0 -2 -1
1971 2 8.004112046869441 14.229206954078046 18.13680719973986 1 0 -1
2873 2 2.9105174193648486 14.899895902563784 22.2694268400914 1 -3 0
3231 2 5.919546824170894 12.190160005526527 21.20909891826967 0 1 0
3178 2 4.957010353143867 15.197356134744009 16.755933427099666 0 -1 1
401 1 6.634381137957271 12.18550649355992 18.006028683914447 -1 1 0
905 2 4.238880902565306 11.454509827171028 17.153438359793274 0 2 -1
2644 2 5.2345910421352055 8.209170771341835 16.61175222396117 0 -1 0
2290 2 4.327833647615717 12.145096084388095 20.65310731457701 1 1 0
2279 2 4.948683624021842 10.646219461770881 18.505838778282993 2 0 0
3881 2 2.5183579121547432 9.671845248658954 20.441480518390307 0 2 0
4111 2 4.714523721961027 8.580033436029145 18.306034112292444 0 0 0
2012 2 5.52228581641341 10.93995812821652 19.981951628191382 0 -1 0
2209 2 6.072420262658404 9.093000427784125 21.454518352679074 1 0 -1
392 1 2.899515714412591 12.834323012660427 16.08775767184495 2 2 0
253 1 6.689543592895922 13.388209926301169 15.545935702655315 0 0 0
3770 2 6.006930712112446 14.817934575951963 19.84276237749513 0 0 0
66 1 7.31326603221589 13.782493655633361 20.734887822922893 1 -1 0
2572 2 4.605354638224927 13.924159993020961 20.345197593133054 0 -1 -1
3942 2 6.586780685101629 12.973198609098377 22.658954540307644 1 -2 1
3607 2 7.824979372573057 8.642614528065518 15.957889791229126 -1 1 0
3802 2 2.6594524139452416 11.335982771996328 17.659703973120216 0 -1 0
3105 2 5.17215685425222 9.27867912096853 15.338383288637127 0 1 0
3803 2 1.5252395384731143 14.91444492155885 19.320571260141826 0 0 0
2865 2 4.4679960007632875 9.36664589818063 19.788497723685662 0 1 0
779 1 1.065726551248423 8.738895574984667 19.049998688745287 1 2 0
3114 2 2.433618441952401 14.765546368952524 17.65517636782738 1 0 1
3331 2 1.1781430292104602 14.282312136287977 16.55847517532366 0 0 0
3747 2 1.7948445590316917 10.616537770340598 19.08058393836597 -1 0 0
3824 2 7.412166640171164 9.299125553805224 20.716782253774177 1 1 0
2176 2 6.713405733099916 8.66353583710127 17.20327508978192 0 1 0
3086 2 4.700896894623343 13.682086279882162 16.96815323577441 0 -1 0
3831 2 3.235696869326828 14.654898036128392 20.495624315765035 -1 1 -1
4204 2 8.701239691856616 15.662174755662226 19.2856600553633 0 2 0
227 1 4.557128815181013 15.104236599240043 18.65750007295273 0 -2 0
147 1 3.371846916224459 12.900863584336802 18.69818631114525 -1 2 1
1081 2 8.46471276974861 10.886994605552395 18.13712495967666 1 -2 0
1036 2 0.5415840380952863 12.370386915132288 15.985559289211679 0 -1 0
2110 2 8.754119448804282 9.835763002255572 19.53370508597778 1 0 0
3150 2 8.47222892087112 14.6544684416987 16.276198877314133 0 0 1
1058 2 5.4677502369304385 12.138464862360077 15.856796614295268 -1 -1 0
3122 2 7.509909795817233 11.549378043358319 15.92376194918409 0 -1 0
3425 2 14.620561186950896 15.58604981926673 22.132975482541 -1 0 -1
1291 2 11.379248557995728 12.900780695699572 22.676450517104417 1 1 0
2617 2 11.417214616747227 8.189049189722425 15.436725786833385 0 -2 0
3964 2 10.921017576839741 8.909717932462403 18.192776632654482 0 0 0
690 1 9.85652159380225 11.723066071015232 22.081653987191963 1 0 1
3518 2 14.42498326868698 9.11858211767185 21.080569620337155 0 -1 1
3483 2 9.720602545702189 15.382859099096693 22.529317344172668 -1 0 1
1819 2 14.81413424566441 10.649241767408487 22.185991190754866 0 2 0
1424 2 9.471791842421801 14.009045650293386 21.52269877992044 0 -3 -1
4043 2 13.55353075580562 11.996888859211822 15.571392608635971 0 0 0
1863 2 10.453138044855457 15.745119745875593 18.98655719152717 0 0 -1
3596 2 12.919664488081915 15.829987276790686 21.425858645706484 0 0 1
3196 2 11.727597779922322 9.624273397676907 16.835180434286812 1 0 0
2606 2 9.776024304659677 13.948822316564984 15.565203874109173 1 0 0
1107 2 17.166887522950038 15.441496985372078 16.55995707133969 0 -1 0
1001 2 15.496631954939541 14.101667914228566 21.14226499143269 1 0 -1
2281 2 15.656083460674576 15.146055860224534 16.916916049970744 2 0 0
4066 2 13.997834622108673 14.927284371855718 16.54109364223554 0 0 1
1940 2 12.700007983524163 14.708699035867745 17.62426451831464 -2 -1 0
3474 2 16.878186395690914 10.306143314908583 20.285635913769045 0 0 0
2074 2 12.563151678503012 14.261682025306953 20.38453977042258 1 0 1
2521 2 10.635541544707102 14.389805831896396 19.92807220953674 0 -2 0
2607 2 9.679539859849692 12.800838390138413 19.88048519107174 -1 0 0
711 1 16.21916912938201 13.217303255125426 17.47870982235123 0 0 0
88 1 14.363494877370163 8.387200725424215 18.35365116085516 0 -2 1
3389 2 13.59106714828744 14.409867841705104 21.663636117242895 -1 1 -1
3695 2 15.358371621597653 10.378743465617926 19.569076777422985 0 1 0
3363 2 15.022086027424814 11.776582885482926 18.561468268040464 -1 1 -1
200 1 12.55629120849569 12.10066611008111 21.025503630569833 0 0 1
2941 2 9.409952511706992 13.685560777704959 17.264551212387833 -2 0 0
2598 2 11.087969572292668 10.138987935756722 15.34608622951324 1 1 0
3333 2 17.453987377234064 12.697170281900334 16.330209105835003 0 0 0
1013 2 11.773239257107232 9.953950234905998 20.94684009016549 1 -1 0
2084 2 16.70764424404125 9.768970868705066 17.2520319529129 1 0 0
710 1 12.706351855707824 16.021892804964775 15.503974714833976 0 0 0
874 2 11.62531195852936 16.07504663179892 17.706414309151214 0 1 1
1657 2 14.576906161144997 12.013368034614361 16.841275632968337 -1 -2 0
4158 2 14.213889202874288 13.06922091964223 20.03014417195981 1 0 1
1230 2 16.06843711431643 15.494317076562806 20.351725210468004 -1 0 0
2816 2 16.57011204309999 14.978915472122768 18.38494935326461 0 0 0
3853 2 10.14704054283596 9.498715826786345 21.80753854890703 -1 -1 -1
2092 2 15.619070074443963 9.765276876295555 16.003596423791613 0 1 1
3017 2 11.957652214833407 10.743938654930535 18.22423706453533 0 1 -1
3995 2 16.962906947801258 13.510048568945598 22.18463975930569 -1 1 0
630 1 13.585340178455242 10.406374398578468 19.63594973500375 0 0 1
2335 2 11.094456054961423 13.136419264170545 16.561625989953804 1 -1 1
1131 2 10.122698363364066 10.63513126229394 18.8172936372744 0 0 -1
1109 2 16.276498638591505 11.661741708910709 21.489966143827303 0 0 0
3009 2 16.74081611429488 10.85467545170986 18.51946061157098 0 2 0
3659 2 13.723751704399149 14.440328296398068 19.1106528772988 1 -1 0
3821 2 14.96331549490334 15.730829666597154 19.05887071788522 0 0 0
1175 2 10.988737308246595 11.299749682429375 19.968640208043045 1 0 -1
3400 2 13.069062136871004 15.828566266584476 18.87472713509186 1 -1 1
2982 2 12.60875686108825 9.005530021842912 18.10566596187701 1 1 0
1912 2 12.128729356508991 11.379765483994484 16.64392263646761 0 -1 1
2054 2 10.301622101195155 9.179096231787668 19.82141731360113 0 1 0
801 1 16.989836644468205 8.613435098790703 18.996962607223782 1 1 0
854 1 11.750579165471354 12.86494172105505 18.84503530940449 -1 -1 0
2959 2 12.840100648601231 8.806235453701513 20.979639551015197 1 1 0
1882 2 15.102579039758735 9.091271536040958 22.71550489479181 1 -2 0
4241 2 15.74615518625989 12.535212451681877 15.617744827709126 1 0 -1
3621 2 17.74136314300654 10.6657230096523 21.761137785604916 -1 0 0
2407 2 24.040723509911796 13.865549479921542 18.990967229992314 -1 1 0
1416 2 21.485085006323363 15.196133700661349 18.5350841548703 1 0 1
3685 2 20.572610366050185 16.039886436444903 20.095263882439863 0 -1 0
2984 2 21.382012361821314 15.331430642755741 21.51800338424121 0 2 0
2662 2 25.389035567158665 9.330047031981007 15.532442836613232 0 -1 0
3100 2 25.381370179690318 14.527581823733923 18.471735790968765 -1 0 0
3378 2 22.160763807386164 14.545878661215513 17.069863997138313 0 -2 1
903 2 23.827707307536244 15.817304375717667 19.961161085220002 -1 0 0
3482 2 24.185066373709205 8.692784590352797 18.240148164216407 -1 0 0
3041 2 18.03656933521524 11.931041379009978 18.56815849535414 0 0 -1
1028 2 17.587139210923137 13.54651674349805 19.120977247933716 0 0 0
3882 2 25.313570293783414 9.497575518002785 17.50555058240836 0 -2 1
4035 2 21.555698947104062 13.53228135334884 18.712011266781666 1 -1 0
1765 2 21.32644758833779 12.377929572910869 22.546381129902805 -1 -3 0
1631 2 22.328895255178043 9.511793489141606 17.44149208024925 0 2 0
3669 2 18.99231306200342 8.269879173380104 17.91241462503105 1 -1 0
851 1 24.866685548904062 11.948456655966822 19.42728556335717 0 -1 0
1160 2 23.423402132450057 12.659346257369897 21.22729938668497 1 0 0
656 1 18.189694576590757 14.98714055940341 20.688875609380023 1 2 1
3404 2 19.256636420039726 8.558808980917721 19.71174729524476 -1 0 0
2945 2 26.104423949316384 12.409015726329383 22.286584284884267 0 0 0
4010 2 24.707579792813263 10.785704354555374 21.127349530616808 -1 -1 1
3205 2 21.15641457018405 8.431091326164236 22.008667831304862 0 1 0
3822 2 23.132601128675105 15.413538013787718 21.247581634343312 -1 -1 1
3306 2 22.968111633174676 13.047418170598906 19.813391536799646 0 0 0
2732 2 20.751575952156966 8.332167506240804 18.737109789522684 0 -1 0
2180 2 25.634590506456096 14.551584429132253 22.433596863232324 -1 -1 0
872 2 21.077777771788053 8.469611570558301 17.011910556364604 0 1 1
2614 2 22.107702344778673 13.722164069566341 21.7205149822546 1 0 0
2832 2 18.103559998930052 8.984289015524135 16.77870856325982 1 0 0
2323 2 20.072505966279014 11.140025792697363 16.363139793352573 0 0 0
629 1 22.36191324345337 11.235051092659594 16.015582685983848 0 0 0
477 1 25.85574490983517 9.07957554366806 22.506293772840213 1 0 1
2282 2 21.11068274978464 11.738370866108506 17.647475675725772 0 0 0
371 1 18.882864712123222 14.710784646642225 16.62395818422493 0 -2 0
1154 2 19.104558968728988 13.31887417201051 18.664712541455234 -1 -1 0
868 2 20.549457741620902 9.23239963701044 20.416243288060556 -1 1 0
3972 2 19.801934341353142 9.46049844635894 16.67537598656553 -1 0 0
1712 2 26.091554456819992 11.14270877763495 17.931261267389875 0 0 1
1362 2 24.539608091489757 11.906379347421979 22.289280084435934 1 1 0
2016 2 20.94112524602894 12.086223515587534 21.003309828926014 0 0 0
1973 2 20.782563765936896 15.683094215492094 16.93857347973595 1 2 -1
2422 2 18.038969249847682 16.02519022276674 18.095775364020106 0 -2 1
1918 2 24.21715070943362 10.49614427526542 18.563299412569663 0 2 1
158 1 19.809866774391995 10.854163755935177 21.998089327620967 0 0 0
2453 2 24.731126050580528 16.01839253534318 21.664985917434887 -1 0 0
712 1 25.516821011516637 9.349037238943005 19.967448284610764 -1 -1 1
1754 2 22.528397142506524 8.190750997450355 20.361513449519908 -1 0 0
3677 2 24.97948984147162 11.22893765383841 15.77655891002125 -1 1 0
2909 2 22.37497905988404 10.727127300397454 18.397200916671267 0 1 -1
3533 2 23.78573246710986 9.273217762553621 21.019126917344177 0 0 1
983 2 24.245512444772903 14.853035928317993 17.12096167400621 0 -1 -1
4093 2 21.686380452268356 11.8651826257965 19.497562614930168 0 0 0
3003 2 21.72563602196744 13.08954469035377 16.506903167176308 -1 1 -1
2399 2 23.266806717786025 13.757529571391453 16.078979570562677 0 1 -1
1476 2 18.397638452090497 9.9209813217731 20.365061855926925 0 0 1
116 1 21.900114443109974 10.02635833977897 21.278226041096783 1 1 0
3377 2 19.073255355387428 12.668559304345646 15.44381295253597 0 -1 1
413 1 24.762224395184454 12.481697702041853 17.183463857261376 0 -2 0
1650 2 19.77819353448843 14.842582986108768 18.543377549922127 0 -1 0
2739 2 24.3461998700064 10.189408797298855 22.571898045639568 -1 1 0
512 1 18.36673226259025 12.554055670824823 20.69248536420054 0 0 0
1208 2 19.04683873990237 12.19332124426605 17.274304793060377 1 0 1
1944 2 20.572546458031063 8.498641507505623 15.343290590479759 0 1 1
2413 2 30.95056774679885 8.319768106649773 22.000980984655914 -1 -1 -1
2914 2 27.599893986278538 11.579681261385746 21.958468460418167 1 -2 -1
3357 2 31.67496440509809 12.488789667473732 20.602772782894156 0 -1 0
1690 2 32.41026613916186 9.571670029738808 22.545327655537402 0 0 0
892 2 30.17415620999563 9.755767367113556 21.271947334845304 -1 0 0
1830 2 31.25843710519803 12.617689344862136 22.178164742624578 -1 0 0
3278 2 26.501033995318867 15.589221319598927 21.466293630639225 -1 -1 1
2178 2 31.86789264610475 15.362269794909162 20.232069529708657 -1 0 0
667 1 34.48790228949284 11.56754463268967 19.866333033430486 0 0 0
3706 2 28.219653538421177 11.887249276309657 15.433921481776004 0 -1 0
2260 2 28.7778756993994 15.982299669101932 16.188241983679347 -1 -1 1
2108 2 33.4377371586686 9.593433868103107 19.653141797269683 -1 -1 0
3236 2 26.70155526921729 15.579353781140536 19.156401700488058 -1 0 0
3891 2 31.100071212694665 15.641624366998366 18.443750515805068 0 0 0
173 1 30.331632510169246 10.827596392089497 19.54644344482172 -1 0 0
341 1 29.138255841644572 13.830139673422856 15.300436506343669 0 2 0
1851 2 28.31149712189008 9.678747228611726 16.011418714866853 0 -1 0
3823 2 27.869986733849593 15.404137843183975 20.318843262289406 -2 -1 0
2668 2 34.27513297090849 10.130944985491151 17.66488892142537 -1 -1 0
2384 2 33.41213175935802 8.721923472529756 18.09467071183835 -1 -1 0
1349 2 28.376694253376304 9.897573495053624 22.036577233369044 0 1 -1
490 1 30.66177610034707 13.14792920222939 18.406180073283913 0 0 0
4080 2 34.12813465643468 14.363439856124483 16.740320726190557 0 1 0
2489 2 32.23151261481459 12.912218767999088 15.542051838883067 0 0 0
3421 2 28.857947074911973 9.461992847702938 18.133312830124733 -1 0 0
2546 2 34.18618487649478 11.828481903408356 17.563523515454683 0 -1 0
992 2 34.72952766960769 11.438096853408064 21.919581772436512 -1 -1 1
1453 2 30.48344499727175 15.351316459881357 16.891293085049302 0 -3 0
2490 2 26.867148687425143 8.908493196470431 15.873097235021937 -2 0 1
233 1 33.56702981435309 15.50268176912832 18.955334627959733 0 -1 0
3396 2 31.53233767925807 10.884559128693457 21.6080103429932 0 0 0
3067 2 29.090575471782568 13.89578177744719 20.15484038745681 0 0 -1
951 2 32.9906033296011 9.293096458532059 16.58657029053256 0 2 0
2547 2 28.541993663122508 12.997694598693208 18.80709562136964 0 0 0
3158 2 32.13711527355434 11.928060086703283 16.875109580213383 0 -1 0
666 1 29.734867884041783 10.63404075006626 15.608137211386703 -1 1 1
3589 2 30.780242599697974 9.539587674342407 17.96055056005058 -1 1 0
2745 2 26.459594029783666 12.123391120120951 15.963735966194276 -1 -1 -1
1490 2 31.464941101655324 10.238678794301718 16.421667436999893 0 1 0
463 1 28.389184208600852 11.41478881869742 17.575781063032856 0 1 -1
3795 2 28.16050385278898 10.429146091654378 20.552788959918338 0 1 0
1663 2 33.53830503003131 10.454338418730392 21.499641581623557 1 -1 -1
732 1 26.917643923587327 13.897050620258602 17.17791292412545 -1 -1 0
1020 2 33.99536823307511 8.815324496677896 22.46331611544053 0 0 0
2019 2 34.501206015800705 13.877047639634636 20.001761080639938 -1 0 -1
3641 2 33.257693822342006 15.264764030509587 22.702267340700754 1 -1 0
2021 2 30.87200195727923 14.024410784352272 20.81961394529943 -1 -1 0
257 1 27.781564755852045 8.476311759654969 19.717471107963082 0 0 0
1452 2 30.51815427198416 11.324268966413204 17.62643612048173 0 -1 1
1098 2 30.105984515880152 8.773609819393126 16.526715458064714 0 -2 0
250 1 28.877750890845668 14.961512025908844 18.180485467252026 0 -2 -1
287 1 30.082246293268287 8.222462408713543 19.446581424379996 -1 0 0
4071 2 27.7207545749912 12.450677396487446 20.368426408483945 0 -1 0
1115 2 27.067325877689115 12.22393331236756 18.944949479264658 1 -1 -2
3249 2 32.7359051690911 14.597759782310147 15.638167607507118 0 -1 1
1204 2 26.689693806235976 16.05585473331992 15.522090349565415 -1 -1 1
3060 2 31.897636368197535 9.085359355919579 19.21694455442589 1 0 2
1327 2 32.69610179805329 13.721551083005924 19.946004750203944 -1 1 1
1219 2 33.81682419871184 14.587352626118758 21.40231499072638 0 0 0
816 1 27.710205765285213 13.854693591516606 22.182731875554108 1 0 1
1769 2 33.975630857078826 13.418484738786498 18.28647920376716 0 0 0
4067 2 27.082796130026807 9.964144560081763 17.94657033012431 1 -1 0
1206 2 0.3129388593156705 18.861940815004644 21.076866712089664 0 -1 0
2314 2 8.011599527619687 22.637253934559162 22.570102894442346 1 0 -1
745 1 8.53454933516891 18.482868616858255 16.315206951084082 0 -3 0
2429 2 7.9221338905309775 19.035219006243537 18.47757998256688 0 -1 -1
1986 2 7.489766909375034 22.990730555296196 17.05799419828124 0 -2 0
3201 2 7.433885215061698 16.841473146243644 21.736186740132357 1 1 0
3994 2 3.872703072841808 21.52315343755869 15.355410976299662 0 -1 1
3514 2 5.768315477899531 16.537121265721225 21.618200317426748 1 -1 0
4257 2 6.271631199829386 16.696423248275856 17.26158920093266 1 0 0
295 1 3.9533549098648377 16.40959277761724 21.024907268385505 0 0 -1
1360 2 5.347221914376063 23.239905291743867 19.948745159036886 0 -1 0
619 1 5.024037878373558 16.794640021911157 15.521692640961923 1 2 0
1797 2 7.506406161497387 21.673333866803915 15.991893494853377 0 0 0
955 2 6.351180694884795 18.275053429557097 16.149040352202263 0 -1 0
10 1 8.557193812642227 17.550898742815576 20.178567479389997 1 -1 0
2817 2 2.389400607813596 16.347654038092884 19.753938470220426 1 0 -1
781 1 4.754954124714395 18.05636745402962 17.979252186290523 0 1 0
714 1 5.882594048014073 23.186327109639706 15.785323161533626 1 -1 1
2725 2 7.308056176986738 19.607684366867538 22.084501331802272 0 1 0
3673 2 4.8653211772491005 18.33628299554463 20.12489625517678 1 -2 -1
1283 2 4.43796801337755 21.801228927676725 21.296792803690547 0 0 0
2502 2 8.293615016053675 22.504672570191417 20.843167749584644 0 1 0
3132 2 3.994329729429737 23.364077580605148 18.917427618569306 1 1 0
3094 2 1.8718686243202962 21.259757666260747 15.385660716967172 1 0 0
1126 2 3.951831015410908 20.405010710173606 20.433333214064138 0 -1 0
697 1 1.2656756233674056 16.80339779258444 16.62430718806561 0 1 0
1236 2 2.649654828002308 22.816880743422978 19.70994529348437 1 -1 0
2326 2 6.339720354963441 16.271736731607618 18.988933358240303 0 -1 1
2189 2 2.850078707659444 19.255109356360016 17.754221818918662 1 -1 0
1139 2 3.18379746295678 22.827568735236326 21.488510270816406 2 0 -1
2044 2 1.7131045637107445 23.550061932068004 20.884789883086466 0 -2 0
135 1 2.683994883916501 21.56644025297667 17.283819514231084 2 0 -1
79 1 7.951177496740986 21.044921721815953 17.86810320426788 0 1 0
3078 2 7.3218755086279765 21.043507026235453 21.321996911258083 1 1 0
117 1 5.857137772002062 22.059390608740728 18.280982295847377 0 -1 -1
1654 2 3.112977879481316 19.05084553900187 20.531511160740976 1 -1 0
840 1 0.9656929387965678 21.31830381651887 19.603023874669415 1 -1 1
511 1 1.3666895730963264 18.234918321809204 19.497569084213797 1 1 0
2634 2 3.560094547499746 17.728801392838747 19.5044175095838 1 -1 0
3649 2 0.4397174860312658 21.06406204884678 17.391366937645135 1 -1 0
15 1 1.2450845900685663 19.39629233949811 16.34650222706684 1 0 -1
2568 2 7.154262410400597 23.29264340223333 19.825251791868013 0 0 0
43 1 5.332093632620894 23.73342630760785 21.98800728246487 0 1 0
6 1 6.166789072481761 19.802630520211054 19.54743245276547 0 -1 0
1960 2 3.7435891472202383 23.35628072062105 17.045438389060493 -1 0 0
520 1 5.535638010423905 20.31938642987226 15.89838604766636 0 2 0
1949 2 1.2877823591507886 19.830164681609432 18.31675277366313 0 0 -1
3597 2 3.3422873258833756 16.17766360610473 17.432653780469757 0 -1 1
3444 2 3.0486648157063 17.90394282163728 16.6464317789706 1 0 0
3501 2 2.689259480243834 20.246708679276132 19.193269560539665 1 0 0
4154 2 0.7736049011653703 16.54275374838896 19.142203732141013 0 -1 1
1407 2 6.435423854565344 18.18656794598457 21.549309180018717 -1 -1 0
2685 2 5.041613533886373 20.30548355211065 17.99991706336217 -1 0 -1
2559 2 7.328443111020863 21.556859504123963 19.815185875282243 0 1 0
1104 2 6.37330081068932 19.07894766044594 17.538034141522143 0 -1 0
1599 2 7.593613939368392 16.219696564275388 15.959704557146425 0 0 -1
1078 2 1.2057250475725785 20.091120044492293 22.152699270192226 1 -1 0
958 2 2.163129115470234 18.820097159671704 21.737797886868933 1 -1 0
3021 2 1.9961943256640746 17.15069182457143 22.195409378497367 1 1 0
216 1 12.160180687343765 17.58067003413388 22.571798976471513 0 -1 0
1094 2 15.071783575381737 18.721870970066043 22.637175755296777 1 -1 0
956 2 12.53243334405716 20.64407739492468 21.800852730479345 0 -1 0
2776 2 17.52249923567118 18.77592369128429 18.636686195583078 0 0 0
262 1 15.709959624869933 21.887108761400263 20.312525031128096 1 -2 0
2215 2 9.341452511941242 18.50135537738121 18.508291707829844 2 1 0
1662 2 12.735806900718112 20.646753788605956 15.464850783014901 0 -1 0
2600 2 14.15957757672919 18.47744698857492 21.402837161907254 1 -1 0
2478 2 10.458728542756583 17.662446134020726 17.723685713150143 0 -2 1
2028 2 15.261489575581452 17.056810763605498 21.445960325721014 1 0 0
1357 2 12.653820794471397 19.294384562809874 20.86508442911852 -1 -2 0
2075 2 12.52593488153924 23.969848338251897 19.535731776837316 1 0 0
4039 2 13.918140011517654 23.442176559303384 20.76565958262247 0 0 0
289 1 12.169277621158406 23.600976223457252 22.028320087608698 1 -1 0
1068 2 16.20036196671513 18.97162042086859 16.246822559561057 0 0 0
615 1 10.942444959335699 16.248216515637736 21.125182676469034 -1 -1 -1
2 1 15.405117792581702 16.761750522637833 15.420247205061598 -1 0 0
792 1 17.21270531488912 23.518319832441094 18.74190937188715 1 -1 1
2705 2 14.68891579940903 20.47244883781415 18.951963380487218 -1 0 -1
2786 2 14.761045858491556 18.28886443963644 17.15161977992134 0 0 0
2417 2 17.06613051971097 22.79027807077439 15.467427529885455 0 1 -1
3897 2 15.319485693445413 22.008663071704177 17.982698357755748 1 -2 0
4280 2 11.39157890113487 18.97015552101002 16.55009995069301 0 -2 0
2665 2 13.00742183761937 18.939046397690973 16.55078535803701 0 0 0
1518 2 11.25727678958529 22.81810609708969 19.748540311131 0 -3 0
468 1 12.728430038365818 21.866944718243232 18.316557902938126 0 0 0
929 2 13.467338589258453 20.61995607279227 20.2386944308366 0 -3 0
4222 2 17.100367979375388 20.800758705823363 21.69171239336394 1 0 0
2320 2 10.20756468328746 21.663931870511938 20.57493463635311 0 -1 0
786 1 11.186747247866377 22.325954244930557 15.549734361331536 0 -1 0
1636 2 13.769394688201594 19.07336288100801 18.21790307746152 0 0 1
2728 2 14.282933655661637 19.223207424974284 19.873365441884356 0 -1 1
1838 2 16.512822640471658 22.42098519504215 17.11470252500998 1 -1 0
3018 2 10.3009450317647 20.11110009724132 16.1605439263348 -1 -1 1
648 1 9.159172012635336 22.841209145315325 19.007313603957723 1 -1 0
3375 2 11.115857320665423 18.022792537521333 20.1023513649867 0 -1 0
356 1 16.582365076211225 20.42353623649413 18.17479235894916 0 0 0
553 1 9.22010300409843 20.134376274030394 19.920757243905456 0 -1 0
3880 2 10.593032393635808 20.45263392081145 21.654380564648893 0 1 0
4057 2 10.708491303993098 23.392569748638536 17.23263586317063 0 -2 -1
1041 2 13.352523344895854 22.296445143360444 15.961214895169679 0 0 0
3678 2 14.352398228797957 22.898055454845142 17.13133653161618 1 1 1
435 1 16.117365520846544 19.059146700927336 20.844021263443608 0 0 0
390 1 9.017664396315599 23.538957110432335 15.41845087880974 1 0 0
4117 2 9.35517278267202 19.494033877610285 21.987632735294433 -1 -1 0
231 1 14.735697968937323 23.874533518204778 18.84624579568256 0 1 0
2807 2 11.05758285906806 21.076130876863076 19.0437858386262 1 1 -1
2714 2 13.445710870460164 21.95236438731569 21.141637589039327 -1 0 0
3080 2 14.420272715104794 17.57835882119509 18.700042353520665 0 0 1
2129 2 16.903968057390298 16.899399734769027 20.78155261209979 -1 -2 -1
1305 2 9.959994582892245 21.770016733261393 17.380112816663544 -1 -1 1
2338 2 10.59084168874561 18.228399727502982 21.733363713944524 2 -1 1
65 1 11.861036135967723 19.24139635375814 18.76237241980409 -1 0 0
1962 2 16.97031298998687 23.531236414072787 21.306891181653143 0 -2 1
99 1 14.481744310454731 20.50481051876232 16.68127570238709 0 1 -1
4265 2 11.98545536056145 17.228361928218924 18.90533647647844 1 -1 1
3870 2 9.917957240302052 20.127532643577744 17.78032096921586 -1 0 0
367 1 16.198614988078617 17.087083427690082 18.133627280652195 0 1 0
2754 2 21.720363267274095 17.80511912834482 19.91021209327443 1 1 1
310 1 21.404154301613815 20.13412174791838 22.583953012323303 -1 0 0
3909 2 23.290257399294962 20.495403456847626 21.246359948983788 0 -3 0
957 2 18.506217818609976 23.53248395311708 15.583012125777188 0 -2 0
1318 2 20.87405520930981 22.172806316051442 22.00913560615514 0 1 1
1112 2 18.313366190435097 18.02445574083511 20.485199541596486 0 0 0
3751 2 18.46674224863045 23.99570958210208 20.311086193898344 1 0 0
201 1 22.62680529059435 17.02438691979215 22.222416544007668 0 -2 -1
3664 2 18.590826852790787 20.052080102361288 18.742849363095697 0 1 1
1247 2 21.804818992888233 23.428741684378537 17.378211720413386 1 -1 0
129 1 23.070922105906735 22.533715559773903 21.254752673849296 0 -2 1
3276 2 20.208193069445276 20.252015343164217 18.057549474139613 1 -1 1
2699 2 22.736468025758903 19.090773676633574 20.676985356873175 2 -2 0
3334 2 24.69175021184082 17.898814548241972 21.972965924814634 1 -2 0
178 1 23.748846625273508 20.847616136255425 18.033728207794102 0 0 0
3736 2 25.215539049803652 16.350323971289697 19.042815570240595 0 -2 0
2141 2 24.940997403731263 21.19765315664214 20.879715487495197 -1 -2 0
1789 2 19.613705327263062 18.418068082800453 16.287801154891316 -1 -3 0
3068 2 18.31234742173495 17.476923045132054 18.844524009596707 -1 1 0
748 1 21.134135278092536 20.604750421501173 20.050416467958687 -1 1 0
2850 2 22.065357199497328 21.762150899664313 17.67442508439111 0 -1 0
1542 2 18.181650889339735 18.197427118371493 15.503098317217892 0 -1 1
1674 2 23.270438773186317 17.575468019900583 19.41350227273366 0 -2 0
4266 2 23.44912423311199 17.686574488103822 17.545018442579646 0 -1 1
1479 2 25.733020945057568 17.46020004814629 15.49716631798947 -1 -1 0
3154 2 19.811570858399723 17.779704447133284 18.14291741533684 0 0 0
3987 2 18.155223103942244 22.198277169618386 16.583442744899934 0 0 2
1356 2 18.888218791077843 23.959923666677224 17.097318261211193 -1 1 0
809 1 20.3573953464451 22.959829237693334 20.08731445300029 -1 0 0
1645 2 22.104306064452473 22.905040618408783 19.102392661058836 1 -1 0
1249 2 21.284424718844114 17.91891160301624 15.333256077362819 -2 -1 0
647 1 25.282989080715765 16.62942411602424 17.098448653008983 0 1 0
2727 2 21.346891375185358 20.468275424720574 17.052965773931376 -1 -2 1
1559 2 24.698157920466883 20.51489974180675 15.957392630788013 0 -1 -1
1839 2 19.43135566469079 20.603985754952006 16.602957366412568 -1 -4 0
70 1 22.111014548015753 19.007089065275593 18.37806728352233 0 0 0
3039 2 17.80931550998095 22.277095072706004 20.2887935739671 0 0 0
1803 2 20.001441574619392 17.843106988064044 19.95256380690653 -1 -1 0
2702 2 22.193477037730865 16.082349235945415 19.876684959027145 0 -1 1
1867 2 20.722136546076836 18.608023435582908 21.409603965886134 -1 1 -1
4298 2 24.353637394543266 18.16021292757351 16.00882540186268 0 -1 1
3591 2 21.047814683828594 17.269954368463424 16.79943999470321 1 -1 0
643 1 25.10449128620454 18.791431730494722 18.99940376153394 0 0 0
3967 2 23.574967932404483 19.16084627101265 22.221672187448092 -1 1 0
3223 2 17.897901954032573 19.006677983619497 21.92039548512707 0 0 0
3600 2 19.086550104175966 21.146189674178657 19.717145461580593 0 2 1
2024 2 23.236546319363217 19.301314051964745 16.699266626101366 0 -1 1
40 1 22.801246771397885 21.178530598277675 15.544491585847503 0 0 0
2143 2 25.05493801055311 22.75871641642285 18.322724900340486 0 0 -1
2366 2 25.43016715316609 22.88070645857455 21.4305159537615 -1 -1 1
3793 2 23.239319665908866 23.40125696635406 16.045767721660916 -1 -1 0
686 1 18.915965882353902 21.137499110196266 21.914479701581893 0 -1 0
1450 2 24.58799660750787 22.866226511742312 16.897256932513113 1 -2 0
1519 2 25.548682996612005 21.3334638409234 19.195154979090006 1 -1 0
1748 2 32.907066305679805 23.18857044676116 21.760844233483155 0 -1 0
991 2 34.51539846667977 22.785441948822367 21.647163730421685 0 1 -1
2380 2 32.653213859396004 16.75838086629075 20.49309780918144 -2 -1 0
607 1 34.346895315442 23.556517051175135 19.006701232650702 0 -2 0
3099 2 32.43387374665397 22.567461435057098 18.959232605787797 -1 0 0
2402 2 27.841484978681677 21.710168175474365 16.109962816937603 -1 -1 0
633 1 32.69739988584848 16.292099664908484 17.058570874462756 0 0 -1
221 1 29.829697264535696 16.082155459992805 20.13379937462809 0 0 -2
2459 2 30.467598366508284 17.82033389413484 15.53743156787967 0 0 -1
4131 2 33.782568697363004 19.130591218454335 15.486265175542824 -1 0 0
3365 2 34.07125941722009 19.318408717965376 22.38511109413332 0 -1 -1
3552 2 29.497613049245903 21.09774240397922 20.55856479907729 1 -2 0
756 1 32.73029731056813 17.257970332831427 22.586781857629415 0 0 0
2755 2 26.726133924340285 20.105540293361315 21.93152467964407 0 1 0
947 2 26.900734001604754 17.28353242597005 18.44222220413618 1 0 -1
3927 2 34.75431400732212 16.25008225333596 21.897188282451843 -1 1 0
1938 2 32.48185730463939 19.77533860131905 22.235164604238744 -1 -1 0
2203 2 27.272533785389466 16.135289296364114 17.211509035608373 0 0 0
362 1 29.30542107286656 23.353426064801667 20.857188568736202 0 0 0
2099 2 30.081720447146242 18.14686616280757 19.845921008460913 0 1 1
84 1 29.886444256754192 22.484104661493596 16.53666007714966 0 1 1
3163 2 30.81295275058956 20.871326071881157 17.31803910801758 -1 -1 0
2136 2 26.3064239229029 23.033240894663322 15.774834049864193 -1 1 0
2378 2 26.55617843150806 18.628044495422778 20.952046640080855 0 -2 0
2721 2 31.56571123282698 21.540751913675628 15.84337959847443 0 -1 0
560 1 34.753513050133975 23.217379563379282 16.79332918419849 -1 1 0
3628 2 29.46040525205749 16.57601908805463 21.975734138836692 -1 0 0
3826 2 27.724017476512778 18.651102566018295 18.267035668762933 0 0 1
1252 2 26.57885769581333 21.591311562817367 20.66819538382521 -2 1 0
2229 2 34.28507210586481 17.272273953836503 20.46333423856756 0 1 -1
2720 2 26.50519103034164 22.808623913774575 19.168521980445046 1 1 0
2027 2 29.375027764780718 20.920305247627077 17.89539932284086 -1 -1 -1
2780 2 27.929300605643792 21.559947875049424 21.678511099075898 -1 0 1
3684 2 33.64360231274607 21.84655315712064 18.15872785366865 -1 -1 2
1162 2 32.41799170630971 20.881852894111304 19.05180024983821 0 0 0
3711 2 29.23542789245682 22.490294011076195 18.71034616439405 -1 2 0
861 1 33.68631591925646 19.865758324904306 18.054540417621304 0 -1 0
3109 2 31.68559972871176 19.517983298755617 16.407070844517985 -1 -1 1
1328 2 29.72935994059251 21.77292388098052 22.273752966639165 -1 1 0
3911 2 34.56265977024043 21.20112079706756 15.792912790713386 0 1 0
503 1 31.915790276836486 18.91146966158894 20.177485705021155 0 -1 0
1434 2 34.750681574501506 18.095385435691135 17.60447297979612 0 1 0
3546 2 28.022470040174266 21.803589526278643 17.715531710491693 1 0 0
2496 2 28.698516524894575 17.66721901126551 15.77659657898688 0 -1 0
996 2 28.141619322331053 18.203466690567687 19.908632934267356 -1 -2 0
2369 2 33.14153255008161 18.281030103218527 16.83756675549044 0 -2 0
2969 2 28.02090090624345 20.164023818427594 17.633043951323575 -1 -1 0
2307 2 29.373260037617868 19.55934839582048 20.390450479110182 -2 -1 -1
1624 2 30.499576316127754 17.275495638858345 18.463195822740992 0 0 1
2499 2 30.731274634160357 20.798532684351798 19.355976526707835 -1 0 0
476 1 31.621143181860084 21.954167100706627 20.664780029167595 1 -1 1
538 1 26.27205280340957 21.29754300937875 17.308478496665284 -1 0 0
1857 2 26.90481419121913 23.249228055224144 20.84494615681881 0 0 0
3938 2 29.961203562147958 16.992205211776685 16.918429613648705 -1 0 1
3781 2 27.75964279275869 16.94784809939577 21.40055926546495 -1 -1 -1
3268 2 31.440409253831678 17.77450253428497 17.062913503116295 -1 0 0
1845 2 27.602118592692346 19.89449470917861 20.298662690605788 0 -2 -1
741 1 30.363308019593997 18.960066869239284 22.43663817830189 0 -1 -1
2312 2 31.15913430317965 16.88282929350234 21.394584809840968 0 -2 0
4044 2 0.6615842973607609 3.5922548073215417 23.105777918272093 0 0 0
1576 2 0.6215029201251936 2.1381963599910225 25.868447799125455 -1 1 0
189 1 3.351331819269349 0.7738328534053993 24.977256951160598 0 1 0
2130 2 7.102571482269312 0.3438038201482505 25.156268305222742 1 1 0
1708 2 4.400165373899261 5.003349255712636 26.258694032006122 0 0 0
865 2 5.907420106990519 7.993787271130688 26.08978877641431 0 -1 -1
1557 2 3.8760891157994064 7.448750036344702 30.062140415156136 0 -1 0
4291 2 2.238338166082241 7.8636039235666795 29.868530818399627 0 -2 0
4079 2 6.348270467711497 7.614092923662691 24.47554337433454 1 0 -1
3958 2 8.691705912883636 2.301197855823897 22.836203306620078 1 0 1
2364 2 3.269122599965957 2.444188725339365 23.724795611895654 0 0 0
1313 2 2.788164306432 5.815627505841482 23.605232420681013 -1 1 0
2451 2 6.071836277758874 5.43354079214795 22.74058346888642 1 2 -1
2972 2 0.3215133159096898 1.060762294745337 24.611912476088758 2 2 1
2294 2 4.708747965499871 6.634160232601428 28.75695916313844 -1 1 0
246 1 2.807703240198104 2.8973060791242644 26.16100741787015 0 1 0
961 2 8.063353471774477 4.385775458201552 29.42306921624867 1 0 0
2498 2 6.15123605997626 3.219428609180756 25.948754116505253 -1 0 1
507 1 1.0092660431522447 4.9477024175437645 24.689524043784182 1 1 0
2135 2 4.7131793680853775 1.642317744210897 23.621324387329754 0 1 0
3957 2 7.6146773212227234 1.9249815614081582 25.71862713473044 0 0 0
3920 2 4.414202522030524 0.341772384155553 26.82923751162179 0 -2 0
3922 2 7.392018782254482 5.484362640654268 27.484212019217345 1 0 1
852 1 1.2589524070276616 7.817535196675469 28.25797898251059 1 2 0
788 1 4.525158203078165 1.8556190257137246 29.446879866437243 2 2 0
2519 2 7.488289617729722 6.199811047025605 23.96134982243732 0 2 -1
2032 2 1.4863598379091048 6.911591856803015 23.25794435559058 0 0 0
1611 2 1.9149956147447427 4.453451777238372 27.8296857694416 -1 1 -1
2602 2 1.7661766124546545 1.9426526460559794 24.020482485922056 1 -1 0
3147 2 2.927981769930442 7.639220123736389 22.998752142873382 0 3 -2
1311 2 2.9053273024483963 3.8944646686123225 29.1219879783261 0 1 -1
1994 2 6.187152560468215 5.412830909286891 26.429368984457135 0 0 0
859 1 8.075229491800467 0.3406676362329252 28.592740392135504 0 1 0
808 1 4.549071214483787 4.935117840004179 29.937899859213896 0 2 0
1581 2 2.6957337527622114 2.463466857001429 28.421614252184096 0 1 0
3753 2 0.6636906765296742 6.208215532878085 26.170459761045773 1 -1 0
3181 2 6.642868930151903 1.663881198678404 29.25928228262224 -1 -1 0
3005 2 5.9128085171823015 2.250845765064378 24.695113276734432 1 -1 -1
2414 2 0.5791822384287286 7.037223218689638 24.64426280094321 1 0 0
2146 2 6.600594830336945 5.218151078135692 29.05920757505666 1 1 1
603 1 6.371513266464959 1.1526754799719594 27.340213281706074 1 1 0
2049 2 2.034123159223346 6.216829398815756 27.16631909967486 0 1 -1
3288 2 2.3211189580004516 4.765852369253352 26.087546464007033 0 0 0
3319 2 3.409220508501526 4.951794006292159 24.58888975776394 -1 1 1
3749 2 0.7086367394733634 3.8820667935875033 26.337160195596375 1 0 -1
557 1 5.178860952894686 3.597838203070392 27.942963803339197 1 -1 0
3065 2 4.468696758865878 5.679038512450687 23.444778599983238 0 -1 -1
2197 2 6.110249147419041 5.796185894579601 24.635669035369503 0 1 0
2373 2 2.0369823760791004 1.0748179120174082 29.138013253861615 0 1 -1
3266 2 7.537517852344304 1.4970352133377351 23.896300752644624 0 0 0
380 1 2.710790074181706 6.046081814461663 29.0751788429368 1 1 0
671 1 6.0685450866281885 7.195629137862 27.88403191812749 1 0 0
2152 2 8.333161643440423 7.221604494039924 28.139091177579804 -1 3 0
1495 2 1.691878598103084 0.27306195718453097 24.24177321309662 1 1 -2
2632 2 4.2644998592101775 2.2104458254956194 27.076400011212314 0 -1 0
3904 2 1.5757344081604134 1.8380729812164494 27.27189555888211 1 1 0
237 1 3.8567677058093413 7.0257243202415784 26.761515339804497 1 -1 0
855 1 7.572492338859361 4.6020196873762265 25.295809047819585 0 0 0
2660 2 7.964571755548578 2.763786247757024 28.656117280996604 0 -1 1
3696 2 8.722360535132154 2.200690574564729 27.18943193468357 2 2 1
2733 2 17.199035003860985 7.537960000312151 29.89465842361432 1 -1 1
3988 2 13.406230308652116 1.0264286937078106 25.538397664449793 0 0 1
2800 2 10.651685187270095 0.4772447694569779 25.88385096087259 0 1 0
948 2 14.288474179741206 4.739630904624373 26.38810064798877 1 1 0
2763 2 12.765504332156162 6.176874607845941 23.224532077427547 -1 2 -1
810 1 9.722789974874187 7.171274825155744 29.988173107288826 0 1 0
1358 2 15.934043201109214 1.559839931759682 26.197320969637616 0 1 -1
627 1 17.427441403270443 0.7254880252216122 29.715318348535426 0 0 0
650 1 13.382990063285751 1.1284913345080096 23.560476321396255 0 1 1
2773 2 16.742294497297177 0.5301174366558862 22.74211038227845 0 0 0
3810 2 9.515150295205146 4.471228374517897 25.50772698153787 0 -2 0
4263 2 17.470169480784033 2.255445898730842 24.018246470270228 -1 2 0
2759 2 11.701725358605568 4.82180897289197 28.048584498593623 2 1 0
3271 2 16.7634576719959 6.038134959547995 27.14431358280103 0 3 0
3688 2 16.090425821106876 4.491958600487845 25.550380686919016 0 0 0
1616 2 11.867323162175188 7.023443814247789 24.434534684502403 0 1 0
3469 2 14.884782944363222 0.3539928768010791 25.20965804059009 -1 0 0
4256 2 10.651497752961808 1.9593766608386844 24.890074607442013 0 0 -1
3643 2 10.522142856212618 4.956367233348316 26.624754712074377 0 1 -1
306 1 15.786818815782528 3.65659814044716 23.578796333997772 1 1 0
2898 2 13.485514536785876 3.3718732246115315 25.68164175095667 -1 1 0
2872 2 17.12066991631395 5.500635779308985 24.112454070441462 0 0 0
3172 2 8.948597240412878 5.721341569580561 28.34295772917686 0 0 0
2188 2 11.371049109418452 0.9504719352986452 29.037584609241268 -1 1 0
3130 2 9.581513826873307 5.235528903849995 23.741048403716785 1 0 1
299 1 15.104075022140023 3.1073347320815814 27.302823830411153 0 2 -1
2996 2 15.339684429062718 7.900622500029523 29.273267417399918 0 -1 1
183 1 10.716377856998534 6.7237416902261655 27.65341942743689 0 1 -1
2434 2 14.802898857292258 2.413098316464688 25.19462521061834 1 -1 1
815 1 12.30723952267906 2.457270716755975 27.758543190907027 0 2 0
2930 2 16.010452313564976 3.9825215111153054 29.266978957533734 -1 1 0
2038 2 10.578541076138674 7.555494007510025 25.691555174810507 0 0 0
52 1 17.419594802422743 7.888090359381605 27.976453154642037 0 0 0
2448 2 9.734019863878947 4.460454101598833 29.41133236712798 1 0 -1
3031 2 11.59750018005541 4.022150508985293 23.12549312223388 0 2 0
925 2 13.564645215925722 7.958845037485342 25.28514526595672 1 -2 0
3838 2 14.3730047098203 6.330420558744642 28.214344021184967 0 -2 1
4188 2 10.395974110309554 0.5297948669132697 24.09147722050682 0 0 0
1144 2 13.818711944491582 7.496060029709153 26.85915713707849 0 0 0
2506 2 9.05692381324705 2.936878616002929 25.560707056736923 2 1 0
884 2 15.706783979050583 1.1138618381334544 28.416723467405244 -1 2 0
3478 2 15.512042181198666 1.792562597041694 23.034458837705813 0 -1 0
1202 2 16.181051287465902 6.757755762940277 23.258440482959355 -2 -1 1
1910 2 12.196527632420898 3.027819038866393 24.222420445900106 1 0 0
2843 2 16.343214959037574 6.483988701258526 25.456406282242778 2 -1 0
2218 2 14.052049353943403 1.7154804983132341 28.500226343411555 0 2 0
344 1 13.671935535975637 4.6118393718262425 29.060307040735207 -1 2 0
1843 2 15.247256172266413 0.21478056664097522 23.399688516477383 0 0 0
1302 2 17.029421398834625 3.3239190034746335 26.70563998382574 0 2 0
2345 2 10.047949270103114 6.568788069735957 22.885187297599813 1 0 -1
2765 2 9.086260530414958 6.961664786892972 24.175060066733035 0 0 0
3948 2 16.9168053083497 2.7381166531095102 29.59410144853583 0 1 0
3519 2 15.539431459350354 1.442279917972955 30.121755983390116 1 -1 0
2087 2 14.626321237780923 8.012503308448599 23.855674980758007 2 1 -1
4314 2 11.247017483020997 3.9368680070882833 29.908267409573384 0 1 0
2030 2 12.188472671082211 7.718254888683958 29.45111846093814 -1 1 0
3581 2 12.11111122159524 2.0406249071833606 30.04580912914385 1 1 -1
4119 2 9.990932310212134 0.9055144509664323 27.482353641846792 0 3 0
2370 2 12.633029833312516 6.310772959257663 28.433523776489178 1 -1 0
2495 2 10.701535566003523 2.0337677442191335 26.65204848447808 1 2 0
1660 2 13.807543688780356 3.0604767108379543 24.012042470199262 -1 1 1
3752 2 12.118746141586366 2.102401655989259 25.68029653317237 0 -2 -1
297 1 14.363411447821113 5.500956251433041 24.590693482279633 1 1 0
1111 2 10.48903505143147 6.113464218366059 24.97909739120186 0 1 0
3095 2 15.437958917269874 5.012360377451348 28.083429959156216 1 1 0
822 1 20.2389313742618 0.3281740136780156 23.754089238256363 1 -2 1
4102 2 25.646883607252132 7.026470836462626 29.980051479955623 0 0 0
2741 2 20.91824308149331 2.5445358352731384 24.926439697696054 0 0 0
3528 2 17.5517997789696 1.9048545626344093 25.818338789302206 -1 0 0
2550 2 22.07517061229157 0.6171428764197617 28.749378916837962 -1 0 0
154 1 20.539577924256655 6.771006932730458 27.859095405077575 0 0 0
2010 2 19.541706677341104 2.3244611300944475 28.062832256318607 1 2 0
1494 2 18.7121081960799 3.219268321966766 26.670986571453657 1 1 0
3571 2 18.869815981971204 6.025123390570085 24.153559114262777 -2 2 0
3693 2 21.869801662345587 4.94846687809299 24.30713451705066 0 -1 0
2793 2 25.464998387020092 2.546934877854923 29.21704561359339 1 -2 0
1067 2 21.50998785174653 3.7319780564008243 28.09614071999244 1 0 0
4134 2 20.021847939671794 3.744941263215759 28.96730250199266 0 -1 0
3656 2 21.329466385526306 6.040731842115105 29.76658429793447 -1 -1 0
1381 2 22.516471608998966 6.588815719043743 26.858807298943134 1 1 0
3050 2 23.717732008026957 7.5541643229419755 26.592127086015967 0 1 1
1226 2 24.012227599130643 7.687440873283545 24.91363858619072 -2 -3 1
1618 2 22.520331278927898 5.9748959678912295 23.149284867183773 1 -1 1
204 1 23.796688473252143 8.04042089233733 23.09129279927897 0 1 1
1672 2 23.945289567128654 5.7677700224204385 26.146592451782073 -1 -1 0
3260 2 25.30510891042626 4.686240127972955 26.73155492609719 0 0 1
827 1 20.5885425856173 6.8151640339536455 23.065388527563073 0 -1 0
1134 2 20.6735069984178 3.9590152362748405 24.044523527612903 0 1 1
187 1 26.10565244553949 3.125849272040415 24.132149626311058 -1 1 0
355 1 19.942355295970746 1.2607771824846612 26.200910001397137 0 1 0
400 1 26.025253602057766 0.24221674338709817 29.16531043533617 0 1 0
2551 2 21.856305939474083 2.602809867798539 23.62551994303148 0 1 -1
3832 2 24.049298765504954 3.7592472298217605 23.86019298558433 -1 0 1
2756 2 24.70814795922005 1.4202997392624255 28.14267639545958 0 0 0
1290 2 21.496606610306493 5.980024368885693 25.63825034282669 0 -1 0
1157 2 23.113516603997724 4.374555332913461 28.777384285408292 0 0 0
914 2 21.451605694184213 4.618096774052156 29.486274126944267 0 0 0
1829 2 21.7405637543782 1.1006592876689918 24.963574627776183 0 0 0
1929 2 18.244161039940924 0.24170745531417026 24.082700716848567 0 -2 0
3894 2 18.95170317196878 2.5289739803890012 29.72317619577242 0 0 -1
242 1 23.324230470341483 2.63608447983004 29.52206437912937 -1 0 -1
1466 2 24.24440295633963 4.685951549928142 29.796216455542197 -1 0 0
902 2 22.822701611647688 4.802438990561226 25.561138394641443 0 0 0
2306 2 19.647720321111027 3.380440709871157 25.24228150175754 -1 0 1
1246 2 18.84014533327525 1.8841546114060566 24.465044165497446 1 0 0
3587 2 24.95797056040821 5.142460675334243 24.704341238811764 -1 1 -1
720 1 24.872118964992755 6.324971738768712 28.189447027695994 0 0 0
1025 2 18.938753624904184 7.723622011895544 26.752121890780433 -1 0 0
1513 2 24.50374807433425 0.2578792794221343 24.09878600850619 0 0 0
2247 2 24.368999148950454 6.276978266819681 23.290586013050067 -1 0 0
114 1 24.226529442974645 1.7249314461202732 26.0998962898551 0 1 0
1682 2 19.646976756682825 5.161352294697849 29.355179312265854 0 -1 1
3291 2 23.08891078883264 2.6999557476343 24.99470790296094 0 1 0
3457 2 25.554571262232457 3.197896670119435 26.109111649413183 0 -1 -1
3983 2 19.686639477648626 6.582632257387082 25.463724202527636 -1 2 0
100 1 22.7416058049468 7.563608265107283 28.852198692951514 0 0 0
3566 2 22.692673091371034 3.9980196722403742 26.81487100714589 -1 1 -1
2225 2 18.644734009079198 5.999035193757467 27.559636401498402 1 -1 -1
778 1 17.986533323479744 5.017269112084896 25.959850095569063 0 1 1
2744 2 21.09038149529537 7.611320541493562 30.068706284161618 0 2 0
351 1 18.092350477210058 4.173545540990395 28.294633010186203 0 1 -1
563 1 18.585895142518723 4.21172775157569 23.61037780129387 0 0 -1
2258 2 21.28640351675597 1.5746312761810688 27.66477958580532 0 0 0
3811 2 31.585585909964486 3.804052735509938 27.563879484474956 -1 0 0
2599 2 30.58851130637581 2.4296736459646486 27.502913196121227 -1 0 -1
2236 2 30.225712071806804 3.6128570582709436 26.34394987031738 -1 0 -1
1168 2 29.43810720880874 1.181959265059608 23.997369617547854 0 1 0
3836 2 30.55853614705839 7.996718945415365 23.83125459247635 -1 1 0
2224 2 33.69252654117142 4.205621408475004 24.18860659593667 -1 0 0
583 1 27.126715863159372 5.134563742801048 22.766191583847593 -1 1 0
2751 2 32.605654057042 1.9677337187178559 27.328175260763533 -1 1 -1
2997 2 32.432943361303955 6.815567335702016 23.928523045746672 -1 1 -1
3084 2 33.33121228420093 1.7835834684714351 28.841065019376376 1 0 0
3593 2 26.701564447917534 1.925539201716917 25.70434472657301 -1 -1 0
501 1 30.362434979063817 5.749096219115913 24.730223706049298 0 0 0
3020 2 30.40422378550785 8.053811497301503 25.362862094841415 1 2 0
4130 2 26.647834477659156 5.191745007843341 24.87786029813866 -1 -1 0
2476 2 29.36287819734528 6.812529110874258 25.88550789099164 0 1 0
2251 2 28.113016721963096 0.9995385602740484 26.841420796359102 -1 0 0
2768 2 29.87457388255809 2.0559502407792296 29.988612445622664 -1 1 -1
1621 2 32.27652926179231 5.378784081145888 24.580496765523975 -1 2 0
752 1 34.213783574600896 6.26374845071024 22.869897048851378 0 0 1
3918 2 31.682034368388056 6.053835381932177 29.750535187345005 -1 0 1
3892 2 29.081791216766636 7.350102711678049 27.90407291107204 0 1 0
1833 2 32.66169255020131 5.1431143038829745 28.179423423730984 0 -1 0
241 1 34.05039080966051 5.812826263305218 29.83232368940925 -1 0 0
2359 2 31.737711580811535 4.338337248114185 29.44287801680492 -2 0 -1
322 1 29.38028981630368 5.233462411509426 27.143397465652587 0 0 0
1388 2 34.16303650569988 2.5980175242906967 27.47604810734864 0 -3 1
3267 2 27.708480353380512 7.071777788141234 25.1102976913238 0 2 0
3033 2 27.366807593319358 1.4013340030575896 23.211589528443497 0 2 -1
1306 2 30.96639393056439 0.9757567343340937 25.01173688236553 -1 -2 0
2810 2 28.51790749304465 3.233687054226615 29.88671699248496 -1 1 0
1207 2 34.00354031018327 0.7845760317894044 29.93849770354268 -1 -2 0
3422 2 30.583314350597735 0.6562683435453531 26.818812279230826 0 -1 1
2522 2 32.2710900351271 0.7027883186573674 26.190760615096853 0 1 1
3076 2 28.16980051761553 5.144922355576907 29.61543437080985 1 0 0
4031 2 27.735146512316636 6.104162888254204 28.097071833063733 1 1 1
4070 2 30.592057460901685 7.414231326858944 26.972779891470932 -1 0 1
3842 2 32.285962928123695 6.829114910814912 28.05735758877527 -1 0 1
2943 2 26.420483646597283 7.153145887276721 27.118451588033942 -1 1 -1
1185 2 27.11235742416601 2.976151668435888 28.653349180160596 0 1 0
69 1 31.656047918587493 0.8444546166643648 29.89652249159954 0 0 -1
105 1 33.3130773692381 4.256151038783141 26.202958582952682 0 1 -1
3381 2 31.36001745398878 4.508849355421281 25.871714046111972 0 1 0
4106 2 34.07186815245801 3.6682146291069304 29.20926774360933 0 0 1
386 1 30.09184971386669 2.860152197401856 24.215633533609235 -1 -1 1
3082 2 26.271095122389426 3.9376526915395433 27.554318879468983 0 0 1
1791 2 28.837859943644343 6.450710077822416 22.89968234779393 0 -1 0
4267 2 27.362561914336432 7.324940646499862 23.380717850597126 -1 2 0
3805 2 30.833021777091083 4.17898676125238 22.782619120177003 -1 0 0
4088 2 26.33170053437279 0.7094891846386964 24.523151721586803 0 2 0
3716 2 30.049317876447653 1.123045019980328 28.5444116861783 0 3 0
2736 2 34.1550423072527 7.809236014482074 26.93329044568713 -1 1 1
3889 2 34.567387247764174 4.340240848682768 27.86063974924413 -1 0 -1
3926 2 29.090843447423932 4.666218021579744 22.758524433749816 0 1 0
2145 2 29.50134237671562 1.9619011014178638 26.09689551743289 -1 -1 -1
1959 2 28.062093227425912 3.9042805802225624 24.110360910730456 -1 0 -1
555 1 32.91336492637697 1.9713486418431365 24.595808662558415 -2 3 -1
3473 2 27.755141253769814 2.5052507751426365 26.96205738432058 0 2 0
2610 2 27.53036652217581 5.8822314361031145 26.37139940572481 1 0 1
708 1 30.887416059145092 7.7821180921223885 28.898385875631423 0 0 0
2161 2 33.70782437689901 6.075756657610263 27.292076992845885 -1 -1 0
1816 2 5.947056418339644 13.720883251851472 28.39895338896799 0 0 -1
3606 2 5.375483228099665 10.79353903238413 25.466782763214464 1 1 0
180 1 0.9162659668883684 14.31082886624228 22.744006930367675 1 0 0
2948 2 5.3622412582762164 12.429012644903054 24.09243793277166 0 1 0
723 1 2.5760717427030113 13.893305990125764 30.03229970486335 1 0 -1
3159 2 4.4198188713618105 10.302260349632588 23.64589410814251 0 0 0
2063 2 1.2655546932695527 11.188791626027987 27.93124443267034 0 0 -1
1106 2 6.791251733846481 11.21005953346459 30.02002994219583 1 0 0
870 2 4.153761317368972 13.620598175122225 24.406484298385166 -1 0 0
843 1 7.646284335301756 10.392798460787931 27.12745501030229 0 0 0
523 1 2.1859228317513706 9.287021498534695 23.782196800694656 0 1 1
3935 2 7.078860650290305 15.51148954827581 24.3773761639022 0 0 -1
635 1 5.134480183336169 9.613298041171722 27.01971970731892 1 1 0
3866 2 3.260912397005359 9.263100387507164 27.934682885022315 1 0 2
3973 2 6.675458928837704 8.961221669422502 28.328375137653325 1 0 1
707 1 8.381879554498994 8.471070878154446 25.025722970616137 1 0 0
1892 2 3.043995239653084 14.80938157682462 27.04876356844 -1 -1 0
1582 2 3.5290751695968114 15.412670512451083 25.11428155710966 1 1 0
2022 2 5.7837407963822 14.241095433794595 23.698916578868534 0 0 0
4056 2 1.7306228478485082 15.506731530344338 25.231243954647322 2 1 0
1176 2 1.76973629642424 12.947008186657035 24.6888134657335 0 2 0
2200 2 2.827763537332785 12.913803990594777 23.35698242772769 1 1 0
1051 2 3.988614891986856 14.88682863660551 23.52182001395655 2 -2 0
795 1 1.2466777000856064 8.68807751758274 25.798625091287526 0 -1 0
3303 2 2.1606085036845846 10.590000073165514 26.825628319631154 0 1 0
3025 2 4.790112337080331 8.493963495795334 28.76558019368546 -1 -2 0
3366 2 1.2971719376908724 12.855410425230847 28.862671978950047 1 -1 1
966 2 2.4381017171492405 15.355045862340765 28.416049798435548 1 0 0
4074 2 5.007305114998495 15.905118046430918 22.777115254708956 -1 1 0
1282 2 1.7874627992649739 15.925784530159822 23.294527836063505 0 -1 0
2334 2 0.4975391069834061 9.892438149765445 27.176785835992305 1 1 0
1117 2 4.860413656382176 11.915377553429945 28.6947164756131 0 -1 0
3165 2 7.464348651154735 8.238960591525064 26.775422529033296 0 0 0
2564 2 7.1150999284944145 13.832657175710963 25.79810088736366 0 1 0
1995 2 8.915612878374052 13.973993784894791 30.112140668360947 1 -1 -1
3699 2 8.381713313034666 10.311405456393231 24.783906267307465 0 0 -1
3511 2 6.029645412354877 10.631899064201038 28.510132083038638 -1 -1 0
1460 2 4.5859007816939865 14.472166140559498 26.130172759927547 0 1 0
2444 2 7.06094526058724 11.285998361594244 25.294816551046335 -1 -1 1
2198 2 8.581168210683659 14.135113035237605 24.590170796765257 0 0 0
2462 2 5.7594615123163715 8.42558117389292 22.95226820296568 -2 1 0
922 2 7.142087859990618 9.378757463267828 29.703085923293784 1 1 1
4084 2 6.854160856970212 12.02446871055698 28.602985216254712 1 1 0
3052 2 7.8012100188738165 14.437651292783869 27.414109391302606 -1 1 0
3873 2 8.059140138558416 13.700274921781315 28.772196251815586 -1 0 0
509 1 4.4026368422892315 8.76397775951175 24.470979143973477 0 0 0
693 1 5.737043474214698 12.346444491359215 26.738477021802257 -1 0 0
2956 2 6.323888641319664 14.82466529708657 27.101304535666987 -1 1 0
3393 2 3.9465248460848352 13.204482539806092 27.620495981605135 1 -2 -1
562 1 3.639923405133656 11.826226762051693 24.92685212457192 0 -1 0
2419 2 3.963988847039001 12.094359945212481 30.047040416922286 0 -1 0
1985 2 8.643275480983815 12.633226198030908 23.735672800331574 0 1 -1
3242 2 8.875881126705423 12.140433563229713 28.48798165712348 -1 1 0
1998 2 2.1360205029610455 12.263122774872423 26.339604792474685 0 0 0
713 1 8.646349576801418 12.479509044631744 25.841267822444074 0 -2 0
4303 2 3.045555807422263 9.675292757784364 25.789182466539536 0 1 0
2529 2 0.6872773036430704 14.379430060182957 25.599486896060814 0 0 -1
1181 2 1.855199607269843 9.630045245829612 28.264027945057567 0 -1 -1
3066 2 3.7212158557846373 15.387648227126268 29.621470854444034 0 1 0
2328 2 5.3519544338590626 15.14202736816322 29.45730325116342 2 1 0
1881 2 2.1546492313991537 13.491497486792186 27.681270310720635 2 0 -1
2935 2 14.783969034525398 15.304133323905305 26.036588985729498 0 -1 0
2532 2 16.3145936144248 12.4892143858513 25.99324723417443 0 -1 0
4136 2 11.15647187094777 14.43276916470805 28.524857197101763 0 0 1
785 1 16.016071303533863 14.68033107050995 24.279909601406626 0 -3 1
2591 2 17.379725001113297 9.337454577109812 26.417491980526727 0 1 -1
3185 2 15.354959474172569 12.235839783326707 24.492543366472894 1 -1 0
3443 2 9.462281534545667 8.17528046169087 22.870340790076636 2 2 0
1108 2 16.83081359824632 8.211990060845913 23.506945742639346 -1 0 -1
2046 2 12.765298692355048 9.430352276438988 29.65848045812256 0 0 0
3394 2 16.42122015297382 12.571914290090271 23.295621128003763 1 0 1
3754 2 11.002508455144348 10.817498597137304 29.87733927453132 1 -2 0
3160 2 16.915216146398517 14.400239046446417 29.957954642802154 0 1 0
3251 2 10.56299390432686 14.665847623161442 30.010033251548 1 1 0
2902 2 10.77299474353735 12.43303125843912 25.686331063482708 1 -1 1
3934 2 11.818579346410903 13.824639016950208 25.5826888771233 1 0 0
2428 2 10.547536455796587 15.082333792863022 26.814698030758787 0 0 0
1234 2 10.197852294558032 15.858309643441327 28.678013781837755 0 -1 -1
4077 2 16.967546247311603 9.754167443558893 23.013164538426082 0 0 1
893 2 12.13608913450601 15.06790397622521 26.82226137133778 0 -1 0
1243 2 12.988286792221507 9.281047622113842 28.0802883771038 0 -1 0
3029 2 14.537670702909434 15.569366655198634 29.004475092227942 0 1 0
1371 2 14.903971497797015 13.601838542803916 25.950727200168267 -1 0 0
2633 2 13.697040994092882 15.674037532319028 27.58363429658205 0 0 0
950 2 15.213132112801409 10.56345194462238 25.81523242662342 -1 1 0
4049 2 10.033800418004637 13.978030687183345 25.678323671711688 -1 0 0
2747 2 11.671733150965688 13.127522912467917 29.595796024419204 1 2 0
883 2 12.53972807924851 9.277027663787676 26.339867315530068 1 -1 -1
2979 2 15.204212038135385 13.160088139159456 27.45770356380444 -1 1 0
1705 2 9.007012492264062 8.652345917323629 29.191287526104222 1 -2 0
3475 2 16.226737110861677 15.237402216529757 28.237686390545804 1 -1 0
172 1 9.806316652519753 15.776179706965225 24.503970829217508 0 0 0
755 1 14.025993924394237 10.199963746706256 24.20974830314648 1 1 0
1928 2 9.919080715861286 11.393630343825247 24.468637710207606 -1 -1 0
2779 2 15.928448151704952 9.41528523339295 27.296278317546236 1 0 0
1544 2 15.413763366145032 13.873307907538267 29.018904629142494 0 1 0
1079 2 11.790078685927224 15.864094450708471 23.234156125424466 -1 0 0
2561 2 16.168764834440147 10.686509931931898 29.88734094835262 0 -2 0
2461 2 15.072802901277592 11.380872728507603 27.33256793676783 -1 -2 0
3939 2 14.788376611944077 8.321202229115668 27.680055748009927 -1 1 0
2394 2 9.312332721231861 10.543933652476323 29.129307039790312 1 2 1
3434 2 12.978941135537658 13.495670639306093 22.933602134415548 0 0 0
651 1 10.620161605710662 9.352974633181262 28.29168939769686 0 0 -1
3373 2 14.582570786041309 12.451312141034142 29.020396943781417 0 1 1
2501 2 9.664780947241224 9.744108945789879 23.57445183295402 1 0 -1
525 1 11.9240403297177 10.855957219423535 27.356633968404818 1 1 -1
1086 2 10.259304789814799 12.460520758325009 27.149076320646618 1 0 -1
174 1 10.605301017449547 9.829939312749207 25.542974273098594 0 1 0
3966 2 11.658312399420893 14.481999438221253 23.920343590401345 0 0 0
1895 2 13.7455835988973 11.700455114795766 23.083418419587304 1 -1 -1
1983 2 9.725064690669951 13.781556219572638 23.157927583668307 -1 -1 -2
2041 2 13.610548358453482 11.157881734871072 26.453318619394576 -2 -3 0
3680 2 12.018250256283373 8.791533171446977 24.696844384419187 -1 -1 1
13 1 14.599084249307776 10.50433353963985 28.835706415451206 0 -2 -1
3030 2 9.230550911228796 8.528035747125474 27.207106820940137 1 -1 0
761 1 11.623415257212873 10.120212573892134 23.255797344724137 1 0 -1
1814 2 13.477173245188535 13.838979147434125 26.69426051218752 -1 1 0
2261 2 10.489733011295138 11.764560158976353 28.581584627648944 0 1 0
4124 2 13.24618896371489 12.374597884183839 27.565666358863037 0 -1 1
450 1 13.28236167213669 12.407722055760333 24.876060169811595 0 0 1
353 1 13.356725315623994 13.880219584304447 28.685580564979208 0 0 -1
505 1 15.613520787232005 8.26676738626883 25.664953493322955 0 -1 0
369 1 20.9167209752703 10.734026915580626 25.60303426848353 0 -1 0
1296 2 23.758712879989073 14.432026188722023 24.954902387543832 0 1 0
1565 2 23.337696876844273 9.534816572288708 29.08717529760697 0 0 0
2616 2 17.95416347664653 13.053299751376567 29.679514171479568 2 0 0
1568 2 22.62423576561997 11.120212894295992 23.95074237279909 1 2 0
3768 2 21.331339035320322 14.359719707950164 24.975362880196446 1 -2 1
77 1 18.02795856957331 13.100613017085603 24.652639888216935 0 -2 -1
2256 2 18.655374358244774 10.977294294799187 25.47141714254752 0 1 1
3285 2 24.184561490228983 16.044810072559372 25.02184953064336 0 -3 -1
1649 2 24.039799497666262 11.907594876900585 26.70785711677257 0 0 0
4233 2 25.602352658352284 9.573148089990637 28.62534129506438 0 1 0
385 1 24.319000070494933 14.31142638770109 28.636836020548422 -1 -1 -1
2604 2 20.426182726239496 8.95547495263598 23.625234711927643 1 2 0
1344 2 17.911543645871866 15.719090076167227 25.387919878251086 1 1 1
1158 2 21.152741987322518 14.786518386908897 26.827266595739147 0 -1 -1
998 2 22.419367974714692 11.281194498370063 27.01495360999064 0 0 0
3586 2 18.70633501272653 12.759901008970846 27.979419793389166 -1 -1 1
3526 2 21.968312008058714 15.137296922937583 29.661248969945234 0 0 0
1178 2 18.245307408054803 11.423454065600307 29.30732062507334 -1 0 1
3510 2 19.868597852440118 10.948736930230329 29.003465996221323 0 1 1
1473 2 24.09899735967043 13.734778641422876 26.40220422830238 0 0 -1
681 1 18.557176268629345 9.15502171877403 29.83212570669978 2 -1 0
2119 2 25.48872224080516 15.121011571437268 27.179346850321245 -1 1 -1
3989 2 23.467118656253025 10.701318824625016 25.589827248613403 0 -1 0
2905 2 18.307797396322925 14.067972176180016 26.396342005784334 -1 -1 0
1564 2 21.292402421769584 10.217763696891556 23.14992761823398 -2 -1 0
3197 2 22.033647501088534 9.90648580901883 27.81232947223329 0 1 0
2766 2 25.721810216995582 11.468739361784634 26.955035450903704 0 1 0
2986 2 18.981297316370725 9.468203076382622 26.33741092354327 0 -1 -1
2163 2 20.61226338746518 9.701816325378845 28.286126948161574 0 -1 -2
2508 2 18.108290014319536 10.792808810859967 23.849977795017075 2 -1 1
675 1 17.87033208769339 15.937793334419696 27.490639793898538 0 0 0
365 1 19.245041596671268 14.919208272813753 29.716882922500393 1 0 0
118 1 26.028252491021604 16.03676527893557 23.981702619407507 0 -2 0
1498 2 25.587229377453728 11.256439245340205 28.680669725642527 0 1 0
3401 2 21.10428503782639 11.325314713647002 28.1000738288697 0 -1 -1
1390 2 25.80506888223023 11.852032154503075 24.77398007366746 0 -1 0
3192 2 25.005304339650255 13.259562074944846 25.00576411379621 0 -2 0
973 2 18.000973023815526 14.63443294613778 22.87386349678893 0 -1 -1
2466 2 18.991929130837445 15.907794161440158 23.04842222142954 0 -2 0
938 2 19.679688727322244 15.101596063284513 25.819790279297273 0 -1 1
4062 2 25.31395246655138 8.554496327700893 27.19707451531522 0 0 0
1873 2 20.775132961873048 12.9108526062993 24.464334354705425 0 0 -1
4269 2 25.032412021574903 9.314364234844316 24.306546497383334 1 0 0
284 1 23.140086234812387 12.985224263043673 23.501078502282063 -1 -2 0
1367 2 24.351587603923605 11.10083001663369 24.01856054539885 0 0 -1
2582 2 20.346762305807356 15.510750607843146 24.22073903340934 0 0 1
3863 2 19.44635009825794 8.686904680947363 27.97887796509095 -1 0 -1
312 1 23.320573470729347 11.652341452345857 28.89862692059767 0 1 1
3784 2 24.818125163802016 12.52671121629071 29.830857796754483 -1 -2 0
119 1 21.227480949905896 13.483753311557903 28.540140855772258 1 0 -1
1011 2 22.514373386060402 14.287153545845324 26.207957885371375 0 1 0
4296 2 19.71123006690366 14.338633419779104 27.757547413805856 2 0 1
2283 2 19.804060197804393 11.642154925098657 23.769121735326515 -1 0 -1
2903 2 24.723754077761633 8.399581862832544 29.73333694482177 0 -1 -1
2899 2 23.019750925591385 12.969035910129767 27.298529807491892 -1 -1 0
2120 2 17.926944798583946 12.347954371240357 26.450574771878365 2 0 0
4290 2 17.684860708001583 8.936688058642083 24.8070168749871 0 0 0
1528 2 19.185042181954913 8.314995584690616 24.574856888824918 -2 1 1
2812 2 24.303936297269995 9.098038352188144 25.878680369371946 -1 0 0
4182 2 27.079881632145312 8.922457627037721 24.51703504676274 1 1 1
1813 2 29.88058413301969 15.979765466991479 27.731495283439603 -1 0 -1
984 2 27.723358181130536 15.5479262400915 29.272506413271596 -2 0 0
2528 2 33.80046934311403 8.681872953043582 25.355181826662076 -2 1 0
17 1 30.194550064140298 14.245004035334924 23.39340518078102 0 -1 -1
2057 2 28.96929622778277 15.079991575742618 24.87491343018319 0 0 0
3484 2 32.92723582295355 10.939482003384617 29.9557392827069 -1 -1 0
4166 2 33.51819090482691 9.273095018380593 29.940935243374472 0 -1 1
1802 2 29.502367633217506 14.856828642527278 26.624850003733542 0 -1 0
2026 2 28.122629078953533 9.869148145371174 28.960165689124434 1 0 0
1430 2 26.22986190497035 9.382312614785528 25.88209320514613 -1 -1 0
2875 2 26.840083933399416 11.04954282629062 25.952825292720213 0 1 -1
3072 2 26.432826783402835 13.741641048278085 23.95708235401132 1 1 0
22 1 32.29032017392117 8.542671569448984 26.849342898678877 0 0 0
23 1 30.009955585322363 12.918996743963618 28.570862608224093 0 1 0
3048 2 33.76032445519431 8.404613034219786 28.536929125843347 0 1 0
2813 2 30.890347992404855 11.037477164330012 29.028237879985664 0 1 0
889 2 28.284726971692614 11.692798229689663 29.591536791793924 -2 -2 0
4037 2 30.865601158166204 9.711225382917668 28.009244283474494 -1 0 0
2127 2 29.839082284341607 9.79189090515701 29.60657175327101 0 -1 -2
2348 2 26.470302890289773 14.01474588450651 27.754942973470957 0 1 1
2266 2 26.70258932988601 12.20521971511619 30.110673910686742 0 0 -1
4001 2 34.738409166890406 14.395531878537 29.186553478618357 -1 0 0
4254 2 29.363791427502743 12.51489050703125 24.799424928647458 -1 -1 1
3560 2 32.61663487127855 13.858407349467715 26.93207399477072 -1 1 0
1894 2 30.940330100966374 13.168015583759134 26.707336074888914 0 -2 0
2622 2 34.54218417372114 10.334289743306119 23.014116363304545 -1 0 0
2611 2 31.86258673626188 13.999443118044217 28.32476475964237 -1 1 0
1517 2 26.307154910027776 13.926514845724741 29.444478064751664 1 0 0
1105 2 33.96679607016469 15.97119368064456 29.59788802125727 -1 0 -1
2186 2 33.682437252154415 11.141215594848415 27.052569035705773 -1 0 0
3537 2 30.62879344043907 11.534607677659194 27.473362974349268 -1 0 0
48 1 27.52562092225953 11.771750046123055 23.82031256834395 0 0 1
2387 2 30.08726650691266 13.859119089607715 25.367858122597756 0 -2 -1
1684 2 32.71238373067672 9.909442769543015 24.201039086342412 -1 2 0
2623 2 28.69177695224906 11.221914575756049 25.816674192508973 0 -1 0
2344 2 28.10362233788075 9.691576638351615 23.655621205745184 -2 1 1
432 1 30.67328742826529 9.892322410716757 23.325639369398775 0 1 0
2017 2 30.142610382937434 11.03431299168477 24.847137089676462 0 1 -1
269 1 27.225638896343334 14.922693423934263 25.866104336863714 0 1 0
3517 2 33.166972419784074 10.228322180635127 28.281674265565997 -1 1 0
1600 2 31.82245536611862 11.252967075121092 24.49572744711049 -1 -1 0
4075 2 34.39599862767004 12.78702535574638 24.84283897688841 -1 1 0
985 2 33.22150444527679 14.83754843793201 25.931308262683032 -1 -1 -1
2998 2 28.205068221575665 15.151567197434684 27.7753930644819 0 0 1
3087 2 28.346192556730756 13.743907631940957 24.356330041599062 -2 0 0
1355 2 33.47059422284701 11.454422330915213 25.422886011993075 -1 2 -1
1125 2 34.57191607801731 9.888807315869148 24.64403216553736 1 0 -1
2569 2 33.56393863420425 14.457393323504377 24.229145687148083 0 0 0
885 2 29.31721821994442 9.276156994164703 25.017091574098167 1 0 0
3051 2 32.01274496349875 8.194504252923464 24.931779198788114 -2 -1 0
1348 2 28.173297070642583 11.421351107543153 27.687226523506858 -1 -1 -1
276 1 34.64411359632058 13.375359548547847 27.196445659697485 -1 1 0
793 1 27.151425433032507 8.241968851019097 28.923944313473292 0 0 0
3317 2 30.896141279264697 12.144271736122354 23.690958825040514 -1 -1 0
3127 2 31.73933515194971 11.580852698251848 26.215280909907644 -1 -2 0
2083 2 29.41260549991189 16.06165922546753 23.687298262413744 -1 0 1
2140 2 29.15205678807713 10.078869242742263 26.929131552376948 -1 0 0
3254 2 26.88566417998918 12.412854034096496 27.47807716850913 0 1 0
918 2 29.22905290059392 8.978320648371406 28.125761256266006 0 0 0
1062 2 31.964084876128155 14.534209736203348 23.547379951098467 -2 0 -1
775 1 33.550956141277425 12.589354008525733 28.962825169256483 1 -1 -1
1659 2 26.90213210996522 10.53698031359745 30.014221358298347 0 1 0
4208 2 30.602055829712985 14.20618266656737 30.1399440621688 0 1 0
1993 2 1.9922126126374797 22.684826448603744 25.547272059682577 1 -4 1
638 1 3.8504437556527287 18.53049151975177 28.890217792913067 0 -1 0
1806 2 7.108335055926374 19.53948451213187 27.705096406562838 0 -1 1
2286 2 5.761132187157216 16.374223665029845 26.794271155451256 0 -1 0
2360 2 7.014026033932691 22.454157342297158 27.794255072265777 0 2 0
1184 2 3.864204411303447 20.536541888389962 28.520975884490426 1 -2 0
1097 2 1.0132376382354198 16.33042775424689 28.67370530347475 2 -1 -1
1637 2 7.754430733130748 17.609040567219097 28.372247113101395 0 1 -1
51 1 1.0376223025907305 18.112656964547718 23.440684790122916 0 0 -1
3220 2 0.7458962570209957 21.6357437626176 28.221409958933926 0 -1 1
109 1 6.989939200708999 18.882378795695004 24.92676571689987 0 -1 -1
3899 2 2.7749031583797517 18.09054573670857 26.966595673244992 1 1 0
1780 2 1.3189037250601072 18.52961200623689 26.149308134752363 -1 -2 0
653 1 3.8769331728856344 21.341839375458612 24.86378609290065 -1 -1 0
2646 2 3.6683972598526737 21.09786659990248 26.878318267898198 -1 -2 1
1977 2 2.506962073610079 21.847333515738818 28.496373907315075 1 -1 -1
2358 2 7.7741840364796415 23.353873953613387 26.512175827229658 1 0 0
416 1 8.838769542669208 22.18123548638382 24.837995620532062 0 -1 -1
2114 2 6.745432978009252 23.48339994748615 23.672745034060586 -1 -2 0
1245 2 8.39732117971426 19.064322060131367 23.493659110350382 0 0 -1
3946 2 8.729518640708443 23.890340350494068 23.59359148592463 0 -1 0
1987 2 5.7010506025767125 21.587578599884317 28.57588639297344 -1 1 -1
195 1 5.671148086905235 23.350087155860564 29.8238720522813 0 -1 0
2232 2 7.98093272638996 16.299822814203416 23.101212533330504 1 -2 0
1620 2 6.097745785710729 18.879919294346465 23.038247531269587 1 0 0
3742 2 4.235824989870116 17.410400730291137 27.183056813399315 1 -1 -1
3883 2 7.599462890401882 21.78128881367214 29.495364190781665 0 -2 0
2457 2 7.351857905342064 17.815394370399012 26.65483980152459 0 0 1
978 2 1.8196822148302905 18.77654541972823 29.15778649717693 1 0 0
3032 2 5.651348368417654 20.513066205484506 25.083109017076964 0 0 0
1448 2 1.3695601644195616 19.609187637829862 24.853318467448332 0 1 0
1199 2 1.3880605819668275 21.445018608476616 24.417020339488268 0 -1 1
4099 2 0.9260264157241738 21.753925065627463 22.754361686910812 0 0 1
1120 2 1.3992922849614 23.931170824184584 26.67499799588227 1 -1 0
3650 2 5.68793929088562 18.778448399673735 30.104673852447426 1 -2 0
1278 2 3.291059396119344 22.69423658006003 26.513997679446977 0 0 1
1310 2 2.510088129002346 22.763310157738204 23.258504091789337 1 0 0
3074 2 7.729768371598919 16.99308429896923 25.10324404064906 0 -2 0
4191 2 0.3773612748386648 19.91852554234363 28.547166678061647 0 0 0
1817 2 6.800752368318179 16.12612276684511 29.419282878211284 0 -2 -1
3139 2 4.068336411621436 22.01302639659638 29.508262467427024 2 -1 0
2536 2 3.2817593566134726 23.496340047095785 28.96557221095689 0 -1 0
1459 2 0.6952061517120649 17.519893472240042 27.195635438682878 0 -1 0
2818 2 2.7819474354361042 19.53994650512115 25.805028016647274 1 0 0
78 1 5.937889661537695 20.955103179841302 23.176734472075708 0 -1 0
3113 2 7.340827179577431 16.126955196309193 27.45600895252219 1 -1 0
3644 2 8.788866165256383 20.024147694123812 27.695689413655984 -1 1 0
236 1 5.098384817495639 19.502325582803266 26.88625125061025 0 1 0
482 1 3.280923326172226 17.095392385262222 24.045760175609114 -1 -1 0
373 1 7.973023906780739 19.25337770744879 29.49932343826382 0 0 -1
414 1 5.941136563591799 22.705205413711113 26.03026709334456 2 1 0
1900 2 7.188356930871754 20.88135336741722 25.499182658958148 1 0 0
1196 2 4.780404708911347 19.685554059894237 23.83132699595399 0 0 1
1222 2 5.733337951090977 19.792209701792736 28.76179425590359 2 -1 0
3741 2 4.153831435387238 22.20205377777075 22.88751238356374 0 -1 0
2675 2 5.126743071023975 18.27951687508469 24.36993972830508 1 0 0
1698 2 5.029991378072717 23.04096402833489 23.932990577664434 0 -1 0
4259 2 5.416204511938782 17.765698710719903 26.024609260555884 1 2 0
2929 2 4.153899587312742 16.124909231150454 28.24220507950403 0 -1 -1
1710 2 11.013994086216806 20.97659779092337 24.40661832915774 1 0 0
1248 2 15.900250418877357 18.443350887900216 25.586674057876674 2 -1 0
3424 2 14.496795759955877 19.06836792559094 26.86915423293701 0 0 1
2241 2 15.079342023377553 20.5231008967528 28.571174067359134 0 -2 -1
1725 2 14.491750000227439 22.165003832728743 25.292472687853788 0 1 0
3388 2 13.684114733009853 21.46871659861499 28.682971409370875 0 -1 0
1934 2 15.394127851786573 16.746346131126273 25.13627524469911 1 -1 0
1142 2 12.81906918971405 18.861912662644713 26.046642861882823 0 0 -1
3603 2 16.767927026379112 21.217856979726136 28.29076335717155 0 1 -1
3932 2 11.5352322287183 19.50455701132084 27.00950640741236 -1 -1 0
1693 2 17.36580945730952 23.800430288065385 26.032233709825483 -1 -2 -1
1213 2 11.306651597462883 20.85208538885817 26.078313240281002 0 1 0
2025 2 14.157438475121177 20.69529805919644 30.117747564800716 1 -1 -1
593 1 11.433382400891398 17.32934401166048 27.181114720248914 -1 -1 -1
945 2 9.361027786787155 21.305326860415825 26.844046918831896 0 -1 0
2937 2 10.853661708501845 17.38173005597016 24.825188250105615 1 1 -1
2785 2 14.846594681922486 19.82705775766405 25.53432117393686 -1 1 0
2570 2 9.1488710396893 17.593198378003557 24.888267544539012 0 0 0
1514 2 17.54278939177148 19.062834601889072 25.541348645756468 0 -1 0
2291 2 9.453245207991824 23.050005394251393 26.8812822813963 0 0 -1
4238 2 16.300238070982076 19.92034291335502 24.530917433642795 0 0 1
124 1 11.717041029463374 21.806800401922935 28.366824160541594 -1 0 0
954 2 17.21320309613896 21.167582227796935 23.312498118658933 -1 0 1
3665 2 15.635194678840953 22.360026905643124 22.911303461386186 -1 -1 -1
349 1 13.871879709941004 21.08599926483882 26.913339055196285 -1 -1 0
658 1 9.29130177689438 16.848026163687692 26.884264373614585 1 -2 0
1586 2 11.390969275258435 17.02364387888685 29.216487379571543 -1 1 0
1535 2 16.549454093283597 18.12799419732226 29.824785215264924 -1 0 -1
4184 2 12.59166344138986 20.01984583074251 29.905920184352002 -1 0 0
318 1 9.43643519751564 19.7955406344429 25.404198198534534 0 -2 0
1549 2 9.677024926677355 18.80335962065262 27.288660392448797 -1 -2 0
3683 2 17.357937706383566 17.950764179918153 26.664280881679264 0 0 0
2783 2 13.46695352580242 19.48171168025396 22.76497760344478 0 -1 -1
1468 2 16.448985384020368 19.479185642432334 22.883207847975402 0 -2 0
2620 2 13.977749961697702 23.434494375799638 26.55548494753894 -2 1 0
2439 2 15.713279086400473 16.4706186772408 23.35798641974849 0 -1 0
516 1 10.264231458558617 22.27153193058902 22.99733978618932 1 1 0
3322 2 17.485911542655987 16.606176594376336 23.607132442521642 0 -2 0
3698 2 13.478268752328319 23.117560805750237 28.12107055303106 -1 -1 0
2246 2 12.248208158334755 23.69871116399092 25.752540655156483 -1 -1 -1
1972 2 12.971177444726136 18.77052304511058 24.322233627997317 0 2 0
3332 2 11.83309619952401 23.10494987043875 24.079980730436542 -1 -1 1
2421 2 14.87772525203563 17.912968852221056 24.226075178104896 1 1 -1
3955 2 12.506903896275345 22.077156548174536 25.440731819234944 0 0 0
2911 2 10.847784175736681 20.748787716706154 29.883893763494868 0 1 -1
2222 2 13.87756418220406 23.003082541181676 22.981036935952268 0 -2 0
2867 2 15.48417771827804 21.28144996014197 24.428179281212103 0 0 0
1229 2 13.45140752339776 17.97301729270864 27.544181426868164 1 -2 0
1384 2 15.212371111206668 19.352785818628696 29.68213051056857 -1 -2 0
670 1 10.62387075409601 19.186699868575744 28.923033754171556 0 0 0
235 1 16.752013070102183 22.983254919352127 24.493826257215684 0 -2 0
1826 2 9.705995291033611 20.318222741831413 23.396725818364672 1 -1 0
24 1 13.056762873787658 21.421970188211077 23.584141915360497 1 0 0
596 1 13.264863074810899 17.01840150198555 25.36994670970981 1 0 0
462 1 12.963884011919228 23.244170715087108 30.006114203010778 1 0 0
81 1 15.373101748937861 17.1766035800945 27.74881419140993 -1 0 -1
1794 2 12.631800449955822 18.51222295464244 29.00977878224821 0 -1 1
1147 2 10.20263438111815 23.62545337443843 29.202469256823207 0 -1 0
1656 2 16.411404705509483 23.684937649417307 27.586209106098305 1 0 0
754 1 9.31948041903376 21.586086749275673 28.748096061958826 0 0 -1
3135 2 9.66774658158422 17.70380102264862 28.712114740588817 -1 0 0
2275 2 24.232922168610077 18.095648168430024 28.525596665570507 0 -1 0
319 1 18.10864957694763 20.007647906856334 27.509994961288797 1 -2 0
2900 2 20.256544766372052 16.41721558156995 27.100441291161864 1 1 -1
270 1 23.850369288349963 23.42547388486218 28.271830089190846 0 0 0
2906 2 19.884561990073703 17.01082027128254 25.48647536973985 -1 1 1
4115 2 23.291406700348553 23.33486993678965 23.3340044329526 1 -1 0
3292 2 23.952632571943028 21.90571906155332 26.279008567608464 0 0 0
4024 2 23.144456816339744 20.35650353376097 23.61880197966287 -1 -1 0
3210 2 25.641403935901803 21.762902735330222 25.94673555664793 0 0 1
1799 2 17.566634142543823 22.642973276198468 29.20164004213214 -1 -3 0
4121 2 26.09228314928188 22.921685715637174 27.319355764130677 0 0 0
1256 2 25.455726327332403 16.443815121322842 26.22513417412864 0 -2 1
621 1 23.96144079734255 16.38104845144707 27.372857259006796 1 1 -1
2440 2 19.305888801708335 19.224701408346917 22.884050167402552 0 0 1
1026 2 21.367714867694012 20.32954384389985 29.434579069050333 0 -2 1
3801 2 20.619148476246238 22.26318714963689 24.774305621044707 0 0 -1
2101 2 20.826108173044393 19.027431241052824 27.69421113968937 0 -1 -1
4224 2 25.509721349200326 18.890637072763482 24.645667596804486 1 2 1
406 1 22.716726278204355 18.586536455598257 26.87581087554145 1 0 1
1287 2 19.446116070567335 20.77916692924709 24.04080121644347 -1 -1 -1
1146 2 20.725865736619944 23.675342301382827 27.628456702602005 1 -3 0
3746 2 23.474760660925757 23.38057656920177 26.373267683345297 0 -2 1
1526 2 20.27652876564908 20.97539778122924 27.43264031531901 0 -2 0
844 1 19.958737320111275 18.908422204870575 24.674544093589805 0 0 1
3592 2 20.597396378788705 16.46164149322008 22.743695198303094 -1 0 0
1509 2 22.921367762735738 23.895102780974625 24.9729446649451 2 -1 -1
75 1 21.168428774600983 22.365359155356728 28.948613499608342 0 -2 0
4148 2 21.315006853303473 20.876314326691137 24.67750996424088 -1 -1 1
2039 2 20.747695699720452 18.088999077766225 22.961214224546605 0 0 -1
3382 2 18.850839450527175 22.342558973765797 23.869137720775303 1 1 1
1570 2 21.243308801574113 17.969933032563958 25.94032605357676 0 -1 0
2882 2 20.87932826935764 17.419597617176933 28.496152236810875 -2 0 1
2934 2 19.71883391130736 20.577054591308887 29.0792478952888 1 0 -1
496 1 25.385408131160247 18.627660252641746 26.791805317332226 0 0 0
1404 2 21.07986452946879 19.695561412446544 26.27286438990714 0 -2 1
1150 2 19.280709200485994 22.10997925914753 27.88531126469771 2 0 -1
1089 2 25.565299249257503 18.016217624679022 29.54702487170765 0 -2 -1
974 2 24.3662436096796 18.19291023792647 23.662651036266805 0 -1 0
106 1 21.838217934100907 21.660163090240438 26.453189960142613 0 0 0
3040 2 21.088733133760982 17.223401296673842 24.336126350323934 -1 0 0
1308 2 25.663379630390324 20.94090755930187 24.348593999631326 0 -2 -1
2267 2 25.983535708488077 20.661360810386498 28.774575816593117 0 1 -1
2249 2 21.6465544403219 22.587961512287123 23.218459768090845 1 -2 -1
27 1 22.60104044960646 16.969607663296415 29.716317696468753 -1 -1 -1
1695 2 17.820529437018664 17.94469614891475 28.629707553195257 1 0 -1
2790 2 22.312908802095933 19.162259602660903 29.00248572291667 -1 1 0
3895 2 24.628568730015438 16.436921137733677 29.370489082347405 -1 0 0
1827 2 22.949237218029488 20.653499382768707 25.2565008584964 -1 -1 -1
2777 2 18.426749877039143 17.722348961421964 25.362436233207383 -1 0 0
2029 2 19.344676710460444 18.965457949611746 28.99119106788901 -1 0 0
4312 2 24.007111201432473 19.83014539764573 28.31732221819199 -1 0 0
2684 2 21.916796823129637 16.402736040840836 27.450884522212238 -1 1 0
2840 2 24.408583191559956 21.2678777213317 29.36214951980029 0 -1 0
3839 2 23.828858567183225 18.727778520148128 25.307867673937913 -1 0 0
1897 2 19.224384690506977 17.264327447445503 29.00610481687299 0 -1 0
3438 2 17.677974417674893 22.301475042928267 27.46068100714514 0 0 0
561 1 18.306674115678415 20.865256557311874 25.597300682163908 0 0 -1
1171 2 22.898231737219103 20.983247134460314 28.68500036601284 -2 -1 -1
2367 2 24.618279839215916 21.96511194923759 23.81190709698129 0 -1 0
1431 2 22.99458264828669 17.312314458591402 24.921560999196526 -1 0 -1
3043 2 18.45370895475057 18.044916988914657 23.60447824437564 1 1 0
3541 2 20.934167530137792 23.491965211935096 25.93161376643935 -1 1 0
661 1 34.17011772564787 23.573036428348615 23.23383925295739 -1 -2 0
4284 2 27.41956266883195 23.672412935072707 28.094211566014906 0 0 0
826 1 34.23215517768351 16.595671232130243 25.64523088715818 -1 0 0
3761 2 28.158529087198854 23.8125346984923 24.065221314939883 0 -1 1
2006 2 29.753121929453762 20.154773721714122 28.328990469072007 0 -1 0
1888 2 26.847744110460788 17.045137808251283 29.267959999748168 0 0 0
912 2 33.09244868341176 20.304349674618507 23.69780788762891 -1 1 -1
215 1 31.847170349316748 19.91271018295516 27.997148679590328 0 -1 0
2299 2 32.77504296365949 23.121829888663534 26.939576151559994 -1 1 -1
307 1 33.79604737398586 19.059148784306643 26.582460230333933 0 -1 0
184 1 28.4678111859674 17.134124330106197 24.932161526513454 -2 0 -1
1722 2 32.68251818769198 21.878485211665698 29.50326691234059 0 -2 0
3502 2 31.190719329900695 21.458536556786427 25.772142375857857 -1 1 1
4047 2 31.226064582501365 16.12401838713851 23.365790486601117 -2 -1 0
2608 2 30.8192471067367 17.131067903480805 28.528435744927044 0 -1 0
3414 2 29.824163876935813 20.967580216354662 23.723435870527865 -1 -1 0
3019 2 28.812881737395767 23.507591639337242 29.087266457678012 0 -2 1
2848 2 34.18780854483738 20.875590367786188 27.20142981503685 -1 0 0
762 1 30.56382017249727 23.412017235738993 23.0806864750506 0 0 1
3872 2 28.917067044520273 21.810369278608526 27.944184358174237 0 1 0
1747 2 29.94462528964824 17.848997084394142 29.94637542110792 -1 -1 -1
1240 2 26.907706926482756 19.54860336999937 27.493058179553422 0 0 0
1375 2 30.420503619421275 20.100026347022485 29.757351794311823 -1 0 0
2297 2 26.83362241934716 21.550605733359603 27.85717582375392 0 -2 -1
3261 2 27.545480109451248 17.956167323070183 26.99452345475741 0 1 0
1874 2 34.1546971855274 16.33743094765037 23.57080779004777 0 1 1
3022 2 33.538633863888336 20.234439352778168 29.600191155590654 0 -1 0
1392 2 29.037991970075684 19.471235877294525 29.614837008674343 1 -1 -1
302 1 30.263801597422937 19.660122519110715 25.026987131408138 -1 0 1
2376 2 32.13044653087515 23.22640623337422 28.572640270908487 1 0 0
453 1 34.41307764554654 17.88999858631407 28.98753022318476 0 -1 0
798 1 28.461983616498628 20.44133774252448 26.84827929498811 0 -2 0
2697 2 34.12535609101741 19.262511282126034 24.54600235812524 -1 -2 0
1317 2 30.520558941481085 23.180080696918914 28.00450763873706 0 -2 0
2683 2 29.577835953594747 17.608394728059075 26.856473472458745 0 1 0
602 1 32.22975525207145 22.95085739751729 24.81116858358995 -1 -2 0
1756 2 34.03812765301359 21.687420605610924 24.030270600484048 1 0 -1
249 1 27.230942389515175 19.226523887674432 30.038983423789432 0 -2 0
645 1 26.342730818349246 18.468354084462895 23.1552255411474 0 0 0
2341 2 26.94231991177093 16.28468696250527 27.272991640163703 -1 1 0
4219 2 26.568456861054834 17.653722673626113 25.05839775627228 -1 0 0
2890 2 29.293723183179647 23.800964803790578 25.824339690963022 1 0 0
3813 2 26.42582631257561 20.365291459353116 25.666260708815855 0 -1 0
2560 2 32.350220680044615 19.076002190273535 25.001604636976126 -1 1 0
4308 2 29.702699173167005 22.21850804956977 26.374272893394735 0 0 1
1706 2 30.16361247104187 19.622031614033936 26.888878704549146 0 -2 0
2446 2 34.3590424434926 21.877219533118804 29.888037518656937 1 -1 0
220 1 34.459226150161 22.670411950169694 26.198396774712503 -1 -2 -1
2107 2 31.665511146046438 17.5763187158172 24.358983783533155 0 -2 1
2423 2 31.881164935086666 19.996850131521946 26.130542244985772 0 -1 0
3206 2 28.405748571580812 22.302921016965108 23.184774137214085 0 1 0
245 1 32.5248088869878 16.186409109192837 28.017043718324715 0 0 -1
2989 2 27.34679518213665 20.826203080005826 23.33880669258431 -1 0 0
4245 2 28.517545359347665 18.765033409985342 28.11146739785164 0 0 0
3765 2 28.475356908915163 20.799705931399828 24.73981482689134 1 -1 0
626 1 31.63659910018461 21.27412706838971 23.193812801865032 -1 0 0
2964 2 32.470270443533195 17.425465947892732 25.949129898314432 0 1 1
3725 2 34.606303227158904 20.620636628753196 25.50566067278083 -1 -2 -1
4292 2 31.35483899585855 17.94252892587756 26.977397780629143 -1 0 0
2931 2 33.83784729993174 22.825734656200055 28.277499035161707 0 -1 -1
2237 2 28.609263572041467 17.528847193149538 22.966585066003038 -1 0 0
1394 2 28.66147335931645 18.901556034466573 24.132901466041954 -2 -2 -1
728 1 27.722910323830707 22.947102703077356 26.02629186057499 -1 0 1
1844 2 6.966250691187856 8.044788717743991 33.673295658773775 0 2 0
1781 2 5.663628652557128 4.425120412483003 32.06467989903918 1 0 -1
3905 2 8.804619790953918 6.337273979638153 36.18969592091526 -1 1 0
1941 2 5.940140081088094 7.456853107094021 34.964755519284004 0 0 -1
3326 2 2.632416946262441 4.265446667603466 30.913936674214973 0 1 1
4068 2 7.317100103247417 4.415127955822546 32.66292854963667 1 0 -1
3161 2 4.7902459918419655 0.9929234726393802 31.830663637227833 0 1 0
930 2 4.978153436160588 4.103083825257667 35.01139713838894 0 0 -1
1893 2 1.0829764027654236 4.145356352930712 32.47533907326534 0 1 -1
1073 2 5.823420601162794 7.241072409579649 36.91310833961046 1 0 -2
1047 2 8.34983916658599 2.031005494450257 37.33177539808222 -1 0 -1
1458 2 3.980402821954041 4.072338336266023 32.29044003500242 1 2 -1
3128 2 5.370975946415592 2.920237024118369 36.43432266241711 0 1 0
2541 2 0.8953369423739375 5.495988622097015 35.48246003741127 1 -1 -1
3302 2 2.6831086964219337 6.819573931177514 34.24194319582102 -1 2 1
3448 2 3.2572929166275295 7.396269569141121 32.53013813738955 0 0 0
2235 2 7.648342306460021 0.6257986154961853 34.45543914309655 -1 1 0
1270 2 3.2609083389160753 0.6646958473934446 32.448432264903424 2 -1 0
3887 2 4.902042780310838 2.7950512166118338 32.248515741831696 2 1 0
451 1 8.928750559435418 7.553785947489419 32.75306560634586 0 1 0
4174 2 1.751521629967829 1.9704461219052283 34.783156546374016 1 1 1
286 1 6.7710002390425466 6.733856994763584 31.420332888004992 -1 0 0
1469 2 3.4731397392597594 5.171040981899987 34.83822500444106 0 0 -1
107 1 3.155982995879751 3.4055992624378217 33.85558118343321 0 0 0
1823 2 8.799224154465323 1.2321726331259468 32.092359977966865 1 1 -2
1862 2 2.0057366153363088 8.067639190269384 31.707438764878315 0 -1 -1
3622 2 2.5174318012102255 3.200039846984259 37.22639854507398 2 -1 -1
2201 2 2.2968074454929175 2.444372808583379 30.317802135203728 -1 0 -1
3827 2 7.902987904151186 3.7781032644546286 34.27613357106934 0 -1 0
1137 2 8.522238312389511 2.0446527640457868 33.720695620350796 1 0 -1
2014 2 1.3444290172425273 0.6261008938504893 30.741979094338685 1 1 0
436 1 1.502312133397475 1.911993947927617 32.27620668475619 0 1 0
3387 2 7.659281024914333 0.8725931983268189 30.62610441998983 0 0 0
1054 2 7.005481272268383 4.607475381522706 30.811072884190875 0 1 0
2383 2 4.680747854590163 1.5901676794016322 37.49526066323542 1 0 0
194 1 0.7591746612916255 7.615254980036998 34.55119698333466 0 -1 -1
1969 2 3.1022845859327695 1.3059366626833429 33.98560373054394 1 -1 -1
491 1 4.738047430407321 8.1256448613831 33.536751264865266 1 0 -1
906 2 1.2816329428260276 6.786908680621539 30.844577541665842 0 1 0
3194 2 1.2648862380662544 5.09706539947114 31.022558680345465 1 0 1
224 1 6.61692458105964 2.3957640039123107 33.16685488525136 0 1 1
3026 2 3.3559461264273986 2.4103267704708817 31.733575009889886 0 0 0
3313 2 5.035344032494528 2.401862417060542 34.72102863773158 0 1 -1
2854 2 8.59486534387241 8.032892590909288 36.95296350960443 1 0 -1
896 2 8.385057993177673 7.673943529582043 34.63606439904142 0 2 0
3539 2 1.1168604593082758 0.8518636703569132 37.01572061039477 1 0 0
2752 2 6.8974901213676025 3.64823907356494 37.005412052295284 0 1 0
2949 2 7.12724812086646 5.630801344988643 36.92325017448745 1 1 -1
2441 2 6.715435463489859 4.227709732854474 35.411574489146396 1 -1 1
4040 2 2.3088507894607186 6.085828546207561 35.88707606492736 1 1 1
2920 2 8.861406259869037 4.670843026560831 33.21403037227284 0 1 0
437 1 5.57240519322512 0.8251871546339956 35.810767025390845 1 1 -1
2085 2 2.0007967130057613 3.678076632287818 35.61485491079838 1 2 -1
273 1 4.672434713909576 5.627150637613647 33.423571795303125 1 1 0
2284 2 0.951961572070982 4.775560023245293 33.842205640123055 2 1 -1
702 1 8.364254664071638 2.7266737784928834 30.656537604714703 0 0 -1
2193 2 4.7459485500220016 7.402024101184581 31.46503631675434 0 0 -1
1920 2 6.167306330341042 5.832002090645466 35.399229721234384 1 0 0
856 1 3.8174143212416785 4.72640767293268 36.78566078821787 0 1 -1
1628 2 1.226233951378327 6.541867485318159 32.83840020964856 1 0 0
886 2 7.2845268589690875 0.6686715600804644 36.17308215726037 0 1 -1
403 1 16.89494644303928 6.087936582441698 33.086768081065614 0 2 -1
2596 2 16.906684984469063 7.843118886444614 34.19615699072047 -1 0 0
4155 2 17.24316926523045 8.113260875408619 31.981796331154058 0 0 -1
846 1 10.801922493491034 8.10436046833593 34.15472365678563 0 0 0
348 1 8.932939851609143 5.163444325327272 31.39530250629112 1 1 0
554 1 16.12652089360128 5.816548314752935 30.42979269854414 0 -1 0
4177 2 12.047747524072388 6.216101702596341 37.51326994896552 0 2 -1
3782 2 17.394835280598745 6.2505763669553955 37.15678617502215 0 0 0
1692 2 17.04423621843736 1.2960895972831876 34.7412490790235 0 1 1
548 1 15.419279660776663 3.3015783709522304 31.28097272086843 0 -1 0
2252 2 14.988764597761962 6.612018564540026 33.15335485262225 1 0 0
975 2 13.18647852109082 5.833498689036766 36.35520767439397 0 -1 -1
4105 2 12.334276451552638 6.07593304228331 30.780806962371067 -1 0 -1
570 1 10.51715371359423 1.8165612359620524 32.64642979337856 0 0 0
1091 2 14.658105042899168 2.9787788969960625 34.658262924870535 1 0 0
1916 2 10.335890975733086 5.374017631571864 32.951933222793436 0 0 0
1457 2 12.791675748579113 1.6212301259854032 31.751002295482422 1 0 0
768 1 12.538100227960944 7.718797225927075 36.21074524246743 0 0 1
2317 2 13.937874350832761 8.051496746090145 32.7410227321264 0 0 -1
2879 2 11.15831339293894 5.543903423499259 34.293637370855976 1 1 0
2500 2 13.693325758858508 2.3784297054943626 36.200596727231336 0 3 0
1143 2 14.697492056996921 1.3304972147949692 31.464983440470533 -1 1 0
454 1 12.310732398527392 3.7919989038104207 31.457014028123094 1 0 0
3036 2 15.475521533488516 3.8556351007458756 35.983269863039745 0 1 0
478 1 9.931254713726485 3.4443222032361374 34.70578739650053 0 0 0
928 2 17.436762266705838 6.987900397233422 35.68447842597689 0 0 -1
425 1 12.599247184257257 5.965772109205564 32.995024374470994 0 0 0
2531 2 10.251397231586632 3.6760525835200792 31.299894331301417 0 -1 -1
4132 2 13.893811962428112 3.962346526680652 33.42720796726725 -1 0 0
3495 2 16.468410249347556 5.280891965550798 35.266998958930266 0 0 0
2878 2 15.734372760832663 6.611986435780384 34.73639653476686 1 1 0
2824 2 12.342061121713144 7.880177726731004 32.15977432397636 -1 1 0
3778 2 12.32324388744218 0.9880886560671033 35.837378836534576 2 1 0
3524 2 16.32375148339396 2.7911717534375184 34.705608645516165 1 0 0
3506 2 15.6124083024603 0.7695177950743004 37.06031636033944 -1 0 0
4235 2 12.09384083820642 3.296610114563161 35.59105434512352 1 2 0
1075 2 11.711417857245094 4.573330599379157 36.2437219498366 0 -1 -1
2088 2 9.549594267367516 4.724802211578138 36.73069729828258 1 0 -1
2584 2 17.156966859990078 3.9245819633092167 36.073898755995195 -1 1 -1
430 1 14.059203980394374 6.752270813611943 31.100102009597908 1 1 0
4162 2 14.833286556075734 5.157874137246782 36.61896863788827 1 0 0
709 1 15.70113978742434 6.88787395105892 36.62379282602751 -1 1 0
3155 2 13.128614987954656 6.506953334309997 34.799939390338174 0 0 0
1475 2 15.241971989913644 5.146224082850872 32.532922905301675 1 3 0
2830 2 9.2185520186064 6.397113082641723 34.46403214777626 -1 0 0
315 1 14.344886368652647 0.8105877012077806 34.664310918919504 0 1 0
148 1 9.768217918420314 1.3032601392583034 35.85952670152412 0 2 0
3415 2 12.490001031627157 1.04798598160686 33.43662771641805 0 1 -1
4178 2 13.631262279700104 2.506723186072564 32.633485797940345 0 -2 -1
3002 2 15.77238204147983 3.9734133713436095 33.809681292879354 0 1 0
2526 2 12.770197248806928 4.838606636095331 34.65225583486262 1 0 1
4195 2 11.484418739725546 2.0421308022685274 34.6100441945494 -1 0 0
2352 2 10.966665600925689 5.17670785398038 31.110482029626358 -1 1 0
3734 2 22.068271901812626 2.568227537919979 35.5857926056357 -1 -1 0
101 1 19.279834167239464 3.3145026357200567 36.360503489352425 0 0 0
2298 2 20.477648882092918 5.380702440701341 32.92960907762374 -1 1 1
4000 2 21.227804226160238 6.636441035910954 31.79131483209315 -1 -1 0
2112 2 18.74279682771303 5.549087132487268 32.2536223776554 1 0 0
2990 2 22.65716258693269 5.089843386503262 35.666096076649346 -1 0 0
151 1 20.667229746206537 7.466988884648922 36.599338725966994 0 1 0
3142 2 23.952901225863926 7.922266782912017 32.6082038876394 1 0 0
3573 2 22.795944772624388 3.8709527358066227 34.61746287967652 1 -1 0
1101 2 20.602749058587666 1.5086498204425438 31.72977094920263 0 0 -1
1596 2 20.952855263206377 5.917492453249119 34.943623551600844 0 1 0
4144 2 22.42106280134718 1.676589473999629 31.68325066958405 0 2 0
3227 2 24.219229520537755 3.142554564369257 33.414901902789175 0 0 0
2472 2 22.63511830491242 6.537091811339406 34.45671732764911 0 2 0
2206 2 24.541268279483187 8.041262018659706 36.626739790091946 0 -2 0
1052 2 25.128207096501473 3.1281311249071244 30.72201936062602 0 0 0
3928 2 24.833151417779884 6.532276486663961 32.45520965671873 -1 2 0
1024 2 25.003655923006473 1.725749900614893 35.63338819601139 0 2 1
4051 2 22.613532740486615 1.6112259595311218 37.228227255863914 0 1 0
3337 2 20.720236371802606 1.758782550035999 34.776363826245756 -1 0 0
2329 2 19.455805192423604 2.6861735798598896 31.30557904084831 0 1 -1
1103 2 21.201439327785128 0.8763080014476027 33.22507880604075 1 0 -1
1354 2 23.876805448893016 0.8129805099986305 36.96346657625547 1 1 0
2857 2 22.285596155925255 5.526639125532963 37.37829057646832 -1 0 -1
694 1 17.622384495664118 3.571721445861798 33.27055521569802 0 0 -1
29 1 19.290827153561693 6.581036454808436 34.037921312439195 1 1 -1
2415 2 25.69111336171014 4.8785807168071855 32.775426739847454 -1 0 0
2008 2 21.282821999630233 7.0143435660394315 33.66898173924457 -1 1 0
1718 2 22.948902839002482 6.439378362489695 32.7985444437822 1 0 0
2978 2 19.611231311963518 3.749240682072393 32.58294829883535 -1 1 0
2558 2 18.528399853698417 6.078094918548611 30.4687807771186 -1 -1 1
818 1 20.93209582384053 4.0640635986448235 34.61484518370013 0 0 0
1233 2 19.419937679736908 2.6769303854481694 34.05073307031092 -1 0 -1
2851 2 22.870166245738602 8.057001542790275 36.16663532834368 -1 1 0
1515 2 21.03433009075532 4.812369271812941 36.49253519217824 0 2 -1
4029 2 25.36015910446378 7.3767370580554426 34.277979742764934 0 1 0
2055 2 23.79145678019185 2.712128241422423 31.799338054240835 -1 0 0
197 1 22.37678212421363 4.520684193527491 32.33137601776429 0 2 -1
834 1 23.278964723306867 0.9763890803304315 33.300965272652 0 -1 1
1159 2 25.209780640211203 5.189471154956592 31.08707933385272 0 0 0
62 1 22.158121786611584 0.21793812449471517 35.43539095565088 1 1 0
772 1 24.267013074912445 5.075781628868297 34.42893329050802 -1 -1 0
1730 2 23.678539792553117 2.5035167902513655 35.005275115953 -2 1 -1
965 2 25.221617915107885 7.823729685206634 31.459797914773876 0 -1 0
1331 2 19.76868276637013 1.9559855180218815 37.551812378071375 0 1 0
2811 2 25.4734719066057 2.202241612365257 34.02002370214508 -1 -1 0
447 1 18.07950811818579 4.412010451554764 30.94662040666868 0 -1 0
2953 2 25.64841457903046 5.1183852087172985 36.8223495940234 -1 -2 -1
4210 2 25.573681332364927 2.113133810038784 37.48084618910302 0 0 0
528 1 19.07512699933173 1.1038627405424901 35.72112540743369 1 1 0
1764 2 19.887084870234645 0.8885631272274624 30.36799951838933 0 2 0
3211 2 19.399412005318638 5.683178056122107 36.70203315440104 0 2 0
1595 2 18.586671769789415 7.1339910861604885 32.207872555667734 0 0 0
1044 2 17.95391211560114 2.729268358642757 35.087151358415746 0 0 0
1758 2 18.239337434390656 5.270972426015021 35.78565569617058 1 0 0
3626 2 19.44907219832621 7.652563268825518 30.701208633236647 -2 0 1
3119 2 22.05549952276156 0.797845178187245 30.330606686311185 0 1 0
2649 2 24.00457566268584 7.542507387735317 35.1144764166829 -1 0 -1
3954 2 31.34717157983542 3.076350621058213 30.675072082396273 -1 1 0
3247 2 29.342077169634056 0.531270542070712 30.46949914465876 -2 2 0
4163 2 27.067738089256864 2.117926718564295 30.177293787433612 0 2 -1
2436 2 26.943235344419442 1.1445519642081103 33.82234618721059 1 0 1
2475 2 28.54993746115523 7.294825313734421 33.874341208211966 -2 0 -2
569 1 30.174451683162857 5.163858452043928 30.919183376955388 -1 0 0
2333 2 34.47863550823216 4.0383191456137775 30.91930868253508 -1 0 -1
1943 2 34.62815319427861 1.6426356490005423 33.61996875757115 1 2 -1
3298 2 28.305825023149655 3.257052236502254 37.18897677110211 0 2 1
4216 2 26.56897931837627 5.500842108948677 35.413576291912555 0 0 0
3454 2 27.866449409021822 6.115418961650531 34.426016878180086 1 1 1
3374 2 33.33979729046007 7.7323945827911755 33.5525624102681 -2 0 0
232 1 28.907474909239898 5.3152180078691025 33.093794146482274 0 3 0
1812 2 32.221555554181954 2.0179747318715027 33.295865542646894 0 1 0
2901 2 26.973319640068738 5.98429650332056 30.300773329550324 0 0 0
2552 2 28.504923417094666 0.3749369761026513 34.039553913038574 0 0 0
4276 2 27.967834640904762 0.4153631020624817 35.66844845661868 0 0 1
3789 2 32.294942222609194 1.8984776436190736 31.57856608459434 0 2 -1
2548 2 26.957456827204375 7.643003739295776 34.729100684582896 -1 0 0
1421 2 32.58149445992714 0.21553345157232515 33.62291782406856 -1 -2 0
960 2 27.359864059119552 7.451881605788749 31.204123863065472 1 1 0
3417 2 27.006245689348777 4.744005995370009 33.78752544530895 0 2 -1
3577 2 30.123266692204044 3.9539122054833453 34.490538152099774 0 0 0
1715 2 30.069435861785774 1.4002850843416257 33.58827668337262 0 -1 -1
4165 2 33.93210850998386 2.4571958362321826 32.34185491220742 -2 1 0
167 1 29.942103282702217 1.0232757151985106 35.6521811440764 1 2 0
2274 2 33.38649813695817 0.21510256941370717 36.53295997976462 0 1 -1
3202 2 28.315359280902115 1.750022454001271 32.96406217841749 0 0 0
4262 2 26.794565728856735 1.447518099682878 36.643730289149744 0 0 0
125 1 33.465263297442846 4.942695037272902 34.698345564060226 0 0 0
407 1 30.507440387380903 3.028026665985582 32.567315503294054 0 1 -1
4137 2 34.17764778108838 5.791825909888191 36.408340887440445 0 -1 0
1707 2 33.91083891685862 4.120539051213937 32.66798043236256 -2 0 0
1059 2 28.34149045353511 1.5481869665789223 36.94340205928708 -2 1 -1
3521 2 28.222630218520116 3.037843022752582 33.958537944454605 -1 0 0
559 1 26.883115010298734 4.175312962098399 31.273062519616484 -1 1 0
4034 2 28.155045954675746 5.925639376567245 31.46797357337989 0 0 -1
3386 2 30.977378303709894 5.39828621516502 32.71277737672762 1 1 0
3214 2 29.16033026518959 7.125584923729877 32.131205924366085 1 -1 0
3015 2 30.010746979794952 7.620737680283083 37.480939797640325 0 0 -1
3576 2 31.049579999442205 7.113484232014897 30.962579330621747 0 0 1
791 1 32.06235338517094 6.827268615596959 34.22103743540501 0 1 -1
19 1 26.59511993712789 3.3616816863601917 35.50423223344879 -1 1 -1
1591 2 29.579874559309147 5.6766964137592435 35.03031159820427 -1 1 0
3380 2 33.50458253740945 7.67063991627338 36.91720894854092 -1 -1 0
3585 2 32.7596618672235 5.328751996829313 32.80708677539303 0 1 -1
1151 2 31.09079828835453 1.8073534736872956 37.14082022535295 0 1 -1
544 1 30.037342341594922 4.527358243885537 36.93933729686837 0 -1 0
584 1 28.583552889410957 7.095871250142378 35.915488176814286 0 2 -1
1966 2 30.795561376012543 2.8613966977233445 35.87019914766403 0 2 0
2217 2 29.067260722900254 2.95417437898374 35.54799455852235 1 2 0
2288 2 32.97658673483791 2.7591109350933416 30.37725642949235 0 1 1
2280 2 32.47887624045903 6.2874143744537045 36.19172518653836 0 0 0
285 1 34.335949420273195 7.790821260903725 31.943599437508233 0 0 -1
2094 2 34.54540085282045 2.2056434830862406 35.223758446550015 0 2 0
1732 2 31.626175106328603 3.172843204778078 34.22489284192599 0 1 0
3439 2 32.67633179442207 6.815806241754909 30.98088691044739 -1 1 -1
1037 2 34.23095641142467 1.8394837020687154 36.806591391369146 -1 0 -1
1481 2 33.392771335281466 3.0097938992773705 34.13288255827569 1 0 -1
641 1 32.622592532866946 3.62689298339988 37.185837286467404 0 1 -1
3646 2 30.72976014347683 6.536035067325184 35.79932076610633 1 0 -1
2479 2 28.381341955316746 1.8938527001914844 31.305834615972977 0 0 0
1505 2 29.736249729501264 8.082072183067424 33.57184495020398 -1 2 -1
3265 2 5.054831639069445 12.471684848246909 33.98767765671611 1 0 -1
1172 2 4.283728596273166 9.787226411825964 34.16333916721678 0 2 -1
325 1 2.7106275211676443 10.299734319031877 36.637300651736446 0 0 -1
3636 2 0.5168565344008914 15.773976672858371 32.234365236141265 1 0 1
2187 2 3.7963009741809635 11.291144055410284 33.51084496279024 0 -1 0
4232 2 5.760988540306548 12.04735783002338 31.01354560781395 0 0 0
2445 2 4.729397723401163 10.178588911372595 37.344605350040126 0 1 -1
2794 2 4.037633153918295 8.88978783221661 31.87829757606599 1 0 0
2976 2 2.093315202324302 14.736876305150858 36.001529127807096 0 -1 0
568 1 6.535182384062959 12.335049580412742 35.53458393763264 0 -1 0
3834 2 8.131155388467675 13.04523141950114 34.105719352289746 1 -1 0
1641 2 5.597596823400208 14.645587963517412 36.33695872772541 0 0 -2
3497 2 8.092463998236454 9.543304081886626 33.63841258194389 0 0 0
2412 2 3.1755932909557454 15.77115448910361 35.11181015134889 1 -1 -1
683 1 7.671066375489271 11.637297122199543 32.93019116426945 1 1 0
1286 2 6.2557354371533895 13.592049319324179 31.608094607495996 0 -2 0
3629 2 7.0082978332566475 14.466186954087254 30.274965415721873 0 -2 0
4293 2 5.848274740900381 10.4466371550518 31.510850788190545 1 0 1
1470 2 6.8411314658671385 16.00096530709996 31.707566998756782 1 0 0
1997 2 4.84255053232014 13.884941779660183 32.70737770500591 1 2 0
622 1 0.8968707566256168 13.012615359024617 31.995604644105747 0 -1 0
2347 2 0.6693790545913605 13.720825792106659 36.86618842164411 0 0 -1
1464 2 8.23566228893873 15.571213175131952 35.670010415399396 0 2 0
2716 2 8.496876061114042 12.767353400688211 36.092187019585076 0 1 0
3304 2 6.4601545594705865 13.434522385255596 33.233124857861796 0 0 0
609 1 3.7153467566469423 15.897299281828294 33.15353617092505 0 -2 -1
4207 2 3.032012744958805 13.695038167270654 31.941972719637864 2 0 0
1538 2 6.540022706019662 15.091226254044285 35.224634183708005 0 1 0
1209 2 8.384999596018364 11.673550618634764 30.54825195697662 0 0 1
417 1 3.099338873323536 9.643624716354722 30.21533756247594 1 -1 0
2362 2 1.4495204811873597 11.075098795799214 31.731173253286766 1 -2 0
3277 2 0.37501037889811606 8.878455212719906 36.5554838925832 -1 0 0
2950 2 4.9646850187865725 8.849273611214286 30.548201767424384 2 -1 -1
4277 2 0.5362018986094319 12.576033608685051 34.07851696093009 1 2 0
1347 2 8.24672353266207 8.459301551140483 30.809183043941413 1 1 -1
3635 2 5.78248520380279 15.216346364485453 33.24153672931626 1 1 -1
3855 2 4.635198912692804 13.131779695369808 35.5696528445914 0 0 0
1485 2 7.340600607388328 14.148950676399021 36.842008948405834 1 1 0
4073 2 1.4102632996447702 12.875565884556442 35.83130424947377 1 1 0
3120 2 2.2164158324077556 15.178022284158898 31.679383087970155 2 0 0
3256 2 1.6662847518561361 9.664338613115277 34.1070545934474 0 0 0
1345 2 4.082242994829889 10.941337162599648 31.584515182939644 1 -2 -1
3330 2 2.1194061899601184 11.4820236893128 33.23122434351235 -1 -1 1
3321 2 6.629635049093891 8.737015455197255 31.278233774104415 1 -1 -1
3011 2 4.734208818869344 13.602651624012788 30.727858156105093 1 0 1
1523 2 1.092493694677899 9.3396775976947 32.49277713439243 2 1 -1
2678 2 2.2519863109234635 11.953939342973834 30.456873055810018 1 0 0
4126 2 7.613080132313797 14.6835357540098 32.72574165641009 1 0 0
3042 2 2.915726230079158 8.792331140059893 34.554434437434075 0 0 0
219 1 3.010365825962178 13.364384582951555 34.16765513919418 0 2 -1
1237 2 6.464691472932393 9.568215347850344 33.157797543812926 1 0 -1
1251 2 1.272937483332428 11.23200385190866 34.98172208754176 0 1 -1
1577 2 4.844342482309378 11.996459343728509 36.9141255363446 1 0 -1
1325 2 6.0560605812582615 10.54032937998803 36.206908918485595 1 1 -1
361 1 2.8457093449361577 12.977953628226157 37.57230555988867 1 0 0
1679 2 5.722737216404513 10.884580057819832 34.34274118053381 1 0 0
620 1 4.767394926900172 8.831766804982074 35.95513648341127 1 -1 1
875 2 3.899657070349502 14.592285233077993 36.044121421204004 -1 2 -1
399 1 8.331929720481254 10.550477159478797 36.55872324942082 0 1 -1
4128 2 8.985500060457445 9.458760072282809 35.1958477352729 2 -1 0
3816 2 15.449694130826487 8.55218410548711 32.44636358121734 0 0 0
131 1 10.08740475004633 11.032078285741445 31.545636805547023 1 1 -1
924 2 15.7700874772642 12.16889385355473 37.309880159664296 0 0 -1
1978 2 16.639658793146495 9.264473626227737 33.51416907048787 1 -1 -1
1988 2 11.64724999825528 14.617215508796901 34.617994616248005 -1 1 -1
580 1 13.372905745824976 11.075508107877761 33.53332379396934 0 0 0
3755 2 14.582374365481625 10.12981973464245 35.19330970245187 0 0 0
2764 2 9.325291281545061 9.356244013573722 32.13518094256335 0 1 0
1603 2 15.04207713525351 11.340880265145799 32.23702678709858 0 1 -1
4146 2 10.977108496224647 11.489138227833907 33.44695212515979 0 1 0
255 1 14.601901858340652 13.264507639524615 36.295351755685424 0 2 0
431 1 12.258488815167329 10.54906728173866 37.47990486880806 0 -1 0
1499 2 12.09473165116068 9.482013875981389 35.066182688214774 1 1 -1
494 1 17.271051943798657 10.95188014483184 37.27548926480797 0 1 1
4159 2 15.157126089950493 15.442028569398238 35.86408892309735 0 -1 -1
1298 2 16.905842576041962 14.93363678459089 36.730757107698814 -1 -1 0
2859 2 14.511758238955117 14.465896053672134 34.22946996330284 0 -2 -1
4299 2 9.83524655709453 12.716566903046367 32.87958832180104 1 0 0
777 1 9.219326668944218 11.349450236909885 34.37028461757113 0 -1 0
4243 2 13.260278534241511 8.333943501547463 34.3935718953745 0 0 -1
1365 2 13.827686116988748 11.491787777178763 30.434999412202437 1 -1 -1
2242 2 11.399247914204906 12.937465063311912 36.92316339486845 1 -1 -1
2674 2 17.075758318499204 13.038611800831587 36.39346480385709 -1 1 0
363 1 9.428095096644837 14.413357023389528 34.47532980045107 0 -2 0
4055 2 14.075492821921182 9.065503075639645 36.73200819595463 0 1 0
684 1 16.689922336662313 14.392222972768659 34.9928077188855 1 2 0
484 1 9.235878571804507 15.389391528829387 32.05916433288592 0 1 0
1731 2 11.889484766702527 10.15963551818209 32.314240176383784 0 0 -1
863 1 11.412205804405284 15.021944964521913 36.8596921247255 0 0 0
2589 2 10.39942031066964 9.846097870733995 35.86836202511479 1 0 0
2113 2 12.869950555789833 14.040431308719075 33.588324834453154 1 -1 0
1667 2 13.123801999107487 14.32934957017958 32.04682870348796 0 0 0
738 1 11.487107034853361 11.594014336425314 35.29438141793896 -1 -2 0
2737 2 11.894394353313984 14.75049913272403 30.78061555158362 0 0 -1
1260 2 11.015997702211742 13.10849606603318 34.06912919921712 0 0 -1
3758 2 13.009685001378276 14.105064993526932 37.2260525612303 0 0 1
908 2 10.813405315954064 8.518667199749919 36.68041563634152 1 0 -1
2769 2 13.483850147048038 11.44430334746983 35.68446960412053 0 -1 -1
2481 2 14.358342985343231 12.940567660364021 31.752701795942407 1 0 0
1785 2 15.958457751246481 8.322828233164014 30.85672559759978 1 0 -1
63 1 16.190142379669943 12.731365668593828 30.750399966348674 1 -2 0
2045 2 12.182149807887198 10.992557651104933 30.926329375829855 -1 0 -1
3355 2 9.254921947681673 15.202732522265817 36.921982941367375 1 1 -1
2205 2 10.927670763042947 8.738886218895201 32.325233045816795 -1 0 0
2991 2 15.624789572508348 9.40816504139939 36.44052252487096 0 -2 -1
4193 2 15.284615070704762 15.392807356571746 37.57800958207079 0 -1 0
969 2 15.741724674824479 14.379680755385742 32.989667563307556 1 0 -1
1648 2 14.513726656506968 15.300536203206933 32.47012047259791 0 0 0
2228 2 8.934463634899494 13.062586502331019 31.579577371547455 0 1 0
240 1 14.291777583397206 9.664053852699897 31.22723846812751 1 1 -1
2331 2 14.768015547943595 9.547090218876317 33.612688600598716 -1 1 -1
3785 2 12.848242757507323 12.882343389184504 30.71666743366293 0 1 0
1491 2 12.965855700017636 12.424257486146226 36.76851709583567 0 1 0
533 1 17.173373093729285 15.625014450141789 31.40758710029859 0 0 0
1217 2 10.525018750879648 13.294218269842517 35.49373436247337 0 1 0
203 1 15.887731223432926 12.343322494678175 33.49247554150359 1 0 -1
38 1 13.195528674691822 16.045235647370966 35.08901682176168 0 2 0
205 1 16.67384677620119 10.333056500386634 31.641448454717537 0 0 -2
234 1 23.152842592952926 13.431779603279914 30.546592060326947 -1 0 -1
4167 2 22.16343181719639 8.708624804912088 30.415386247684282 0 0 0
3687 2 17.90704400191993 12.993819151449362 34.39383637119403 0 1 0
1856 2 25.058233126270903 11.631199404298632 35.29078237938793 0 -2 0
2838 2 19.02596210254162 10.866145014572787 32.679038601581524 0 0 1
3464 2 21.711193512298195 10.883272967112601 37.4126716145038 1 1 0
301 1 25.63592742234237 13.674169011168166 31.31888709135903 1 -1 0
439 1 21.084982599242107 15.828049668760169 31.85139718990629 0 0 1
3860 2 22.496435584200725 15.637215140942471 33.53502862056527 0 -1 1
3833 2 23.90841141874558 9.061208179649844 33.838777711217624 0 0 0
2583 2 23.774156984213217 8.991773828009286 31.253144751732624 -1 0 0
3250 2 18.441757099346102 12.077129104325515 36.056791182946 0 -2 0
3300 2 24.558772367223234 13.729148678118424 34.703291461268826 -1 2 0
3951 2 23.557577757228184 13.806592420912544 35.980136779651325 0 -1 -1
4156 2 25.999165335133807 15.899966217941452 31.534025192389812 0 0 1
1964 2 21.77154997716834 10.820653789749537 31.874157323427145 0 0 0
3117 2 18.63057316887088 10.372545863329908 35.61553025727921 0 0 0
1038 2 18.058486821281285 13.853616065028959 31.08989756165232 0 0 0
1417 2 18.583456769891132 8.689411039885503 35.82138104384425 0 1 0
2409 2 20.3571588567243 8.53726152983812 33.566810884121786 0 1 0
1418 2 24.370127881642446 13.259255563887862 37.36733412902931 0 -2 0
2313 2 21.62556570673764 14.256532025611685 33.94983220340382 0 1 0
3461 2 21.275117921145934 9.902880717067985 34.32593635418233 0 0 0
3977 2 20.786396021230736 11.417320374507089 33.48066107846845 0 -1 0
802 1 18.91994963693685 13.836100435576848 36.90050739313551 1 -1 0
2706 2 23.72445295513241 15.437522416415751 30.32082524635629 -1 -1 1
2125 2 22.633476561903123 12.459497047551539 36.87430584564264 0 1 -1
4231 2 18.92225770581557 8.969259035131508 31.83077910494237 0 0 0
4228 2 22.574364968458354 12.934821549272442 34.58314316443507 0 -2 0
1740 2 23.826134911802775 15.47231965733737 32.55056912439985 0 -2 0
2340 2 20.20267070072015 15.185343555431468 35.86926496036692 0 -1 1
3447 2 17.59289532953348 9.035945826979521 37.14075533178299 1 1 1
1113 2 25.81266653391665 14.736289308957849 37.09235502134464 1 -2 0
1477 2 25.48875478257204 13.108918138780005 36.09494859433181 -1 1 -1
1195 2 18.85406460934533 12.748031183146072 32.8208240864885 -1 1 0
2954 2 24.613789578085957 10.470966828163949 34.00815742382775 0 -1 0
3107 2 20.36253799871318 9.831371495391164 32.50604596693065 1 0 -1
1332 2 25.751163779002457 14.392415157937057 33.1038623084312 -1 0 0
2730 2 21.20766438174364 13.99676690891625 30.57828247254632 0 0 0
1116 2 26.149749240447832 10.603785575811449 32.770349770784776 0 0 1
209 1 24.35838884952757 11.858685526770346 31.597371887452915 -1 -2 0
498 1 22.141716089480024 8.763714116621072 32.58363080394237 0 -1 0
1968 2 21.64288034002304 12.180658152132267 30.773254777550594 0 0 -1
2853 2 20.403066238380433 13.29871818281516 33.34983548373766 -1 0 -1
2105 2 19.12384308973677 8.405806686715755 37.52130792917151 1 0 0
411 1 22.768065120664318 15.700022389263314 35.72901675104871 -1 1 -1
3651 2 22.758863519660167 9.248479295563678 34.829370907829016 -2 0 0
1022 2 17.622867506619222 15.846418061511404 33.50424571398679 -1 0 0
2171 2 18.463140052823373 15.61138356736704 35.22784924165527 -1 0 0
366 1 20.4341954613235 11.538835335521181 35.701112779914844 -1 -1 0
3631 2 23.444712441564075 11.192160094256186 37.484966384652644 0 0 0
1478 2 21.121079646910196 12.927741789115572 37.17348416844845 -1 -2 0
4255 2 20.197229855102144 8.960094231923348 35.27636500033072 0 1 -1
2418 2 17.599915921891913 14.00764447293204 33.03221506069027 -2 0 1
1423 2 23.684244855898793 11.990622699706448 33.75355028242484 0 0 -1
443 1 22.211100340673394 12.828688916239438 32.66902518213738 1 0 -1
2207 2 17.600439449401314 11.262001025224157 33.69479368947234 0 1 0
878 2 22.814250771984675 10.393378955788021 30.67884017223038 -1 -1 0
3235 2 20.640002854448134 13.687197483893293 35.35915584455681 0 0 0
358 1 24.194942770200843 10.014021676488255 36.09408431091976 0 -1 0
4033 2 21.552773354916894 9.871157013819644 36.08816789017014 -1 1 0
601 1 19.627732529003794 12.051251742125373 30.86533186512532 0 -2 -1
1405 2 23.942503702846953 13.900521699254218 32.57194452416226 0 0 -1
3216 2 26.439721054218545 8.972293113014208 31.734265994772663 0 1 0
1403 2 33.7708857981594 11.860219125595858 31.40945301476497 1 1 0
54 1 34.750629742957585 14.456248039801364 34.82767705166796 -2 0 -1
2535 2 29.32892458482367 11.008231435935164 34.22960462301794 -2 1 -1
2918 2 30.316356983054465 10.11021555190217 35.48190645052743 -2 2 -1
1984 2 33.43003246459958 13.038804347984945 33.9883525675401 -1 -1 0
3063 2 27.949688460673766 14.425902617889289 34.04211637602847 0 1 0
549 1 27.875472996979287 13.201331172835815 36.13062553144116 -1 1 -1
1443 2 33.66483381200301 15.728749376772027 32.912333567643934 -1 1 -1
2480 2 31.89123416711811 14.982766986475125 32.59607042743375 0 1 1
2350 2 34.773653723661496 9.854156728614786 34.917807756243185 0 -2 0
1578 2 31.299159285299094 11.433809643902219 35.95471992972218 0 -1 0
1323 2 31.794915584429788 13.421028435737227 33.41892161061218 -1 1 -1
4 1 30.000467543252896 12.198578788843756 32.18831467606562 0 0 0
2392 2 26.171564036057468 10.586939394593207 34.61079623317213 0 -1 0
3318 2 28.77391000188517 12.718076549011931 34.342005694141356 -1 0 0
3339 2 30.05903149260386 11.089538625219202 37.28231618858745 -1 0 1
132 1 31.365503255477403 8.324433883472246 32.2858878285152 -1 0 0
1991 2 31.8289198313587 13.072976025843897 34.9936478156752 0 0 0
3714 2 30.12628157842194 11.293150672491457 30.44785147652898 -1 1 1
3446 2 28.772200741471877 15.688424247616746 33.55118031464796 0 0 0
2892 2 34.05218442262641 10.058897573753184 31.38172702904011 0 0 0
1717 2 30.385403199442898 12.443857892983267 34.246843812172536 -1 -1 0
2354 2 33.081579762113705 15.724224489057677 35.71773672732555 0 -1 0
256 1 28.94761129525661 14.575705402267156 31.409431422207167 0 0 -1
3346 2 32.032212527439455 8.964908293573492 34.141982114578106 -1 -1 0
917 2 30.440062212797905 15.946331658764153 32.74596433430668 0 -1 -1
337 1 27.498646674939323 12.14164485366314 32.7731170923093 0 -1 -1
3686 2 30.859349141108 9.074641455691886 37.42140294361663 0 -1 0
2731 2 26.35438048323896 11.239437119459803 31.379461711538035 1 -1 0
2322 2 26.2238970758505 10.063957263207314 36.92001919436882 0 -2 -1
4313 2 27.155193472367777 15.14123804333263 30.679748847429423 -1 0 -1
604 1 26.3784945640637 14.769244551652958 34.976696783077905 -1 0 -1
2968 2 27.21009272283327 8.753877540854146 35.9034759809388 0 1 -1
4021 2 28.614805717635292 15.411248262650147 35.294298888113865 0 -2 0
676 1 28.452417347599987 9.292516970038301 34.720473425668146 0 0 1
3111 2 33.251477894294354 12.023154934690433 37.4443354471102 0 0 0
292 1 32.568098578877 14.598869738248329 30.279875740943872 -1 1 0
3108 2 29.15488601316345 12.831024279963156 30.51270028096765 0 1 -1
3917 2 26.474640808094097 11.690959974247818 36.21897212208143 -1 -1 -1
3170 2 29.714507745175 9.827600057136268 33.09155415142026 -1 0 0
4301 2 33.71253788517568 11.135778620241688 34.61221949851859 0 0 0
1400 2 33.07016311871496 9.221681290589249 36.7936498284182 0 0 0
49 1 31.844154670820817 12.462604284221117 30.383001292619007 0 -1 -1
2710 2 29.18590831796314 9.184739318292005 36.45216422271518 0 -1 0
2182 2 30.40099751388608 8.458154206590375 30.748939700688318 0 0 0
3657 2 31.916105325373895 9.798058077482205 35.638056357232905 0 -1 -1
1614 2 28.229037957991512 8.704273000291025 31.75991360392856 0 0 -1
2158 2 27.595971937323906 11.45082897544169 34.99176731954961 0 1 0
2576 2 29.643976883100766 9.962688663852784 31.464800297159208 0 -1 0
298 1 30.587413159475695 15.357980307044565 35.51973718044062 -1 -1 0
2374 2 33.5725905941152 9.707691865498782 33.06132860980277 0 2 0
3800 2 30.78563096491404 15.441456083747696 31.035119139282006 -1 -1 0
1872 2 33.00046675093621 10.838252270758174 36.13629804787823 0 2 -1
3356 2 33.24827625137854 13.163855547717514 32.38511818845818 0 0 0
2368 2 30.361969044059403 13.253162593626922 36.219033005717925 0 0 0
3293 2 33.37456496429756 14.578525022616342 36.69213401073027 0 0 -1
1746 2 1.387891295916657 16.812466520641692 35.187868226990794 2 -3 -1
4226 2 3.075685389510101 17.400180684983667 34.38939899417971 0 0 0
488 1 7.463801766949222 22.88667525570849 31.41986607161594 0 0 0
3851 2 6.443189722778971 22.01180903826385 32.88961514148009 2 1 -1
275 1 0.8574577324839794 19.93393584054312 35.41433099084478 1 1 -1
751 1 4.8883380092457305 18.726316631970036 33.690124366687755 1 0 0
375 1 5.244313285024204 16.4567349000839 34.66665838563456 2 -1 0
2177 2 3.8775882826317702 20.6886846836115 31.00754271370937 1 0 0
278 1 7.19962638898425 18.91823915881166 34.12178953040182 -1 -1 0
4315 2 2.4217601919896614 21.299407675898166 31.67702726522464 0 1 -1
1442 2 6.449824638999798 20.240162868740214 37.2221196558856 0 -2 1
4046 2 6.000254202160963 23.803129224652217 32.137736648986525 0 -1 0
2711 2 4.886577812421449 17.87793469104468 31.146148143667034 2 -1 0
2927 2 4.100967422452849 20.326513622588052 34.50427532290067 0 -2 0
679 1 2.478786163124217 23.569824471021022 35.43394827412738 0 0 0
2131 2 1.5698122722104342 17.30795791116074 30.23133010811797 1 0 0
1474 2 1.7068534200069874 16.804935314294234 31.935976409373215 1 0 0
1906 2 1.0304570109869537 22.13919129568847 31.298650337300412 1 -2 1
3477 2 7.832585854044001 17.418554443765615 32.1307071145751 1 1 -1
780 1 0.7187029220437229 19.641024615202696 30.656020031694545 1 0 1
2847 2 2.3161773640537775 17.752738743339904 37.566975463844635 1 -1 -1
4011 2 1.170034819081942 18.26536374924156 36.36715143956095 1 1 0
3427 2 6.554737332408195 18.006004981145693 37.24410099706657 0 2 0
2631 2 7.1978981624039875 17.169593524386976 35.46905182648078 1 -1 -1
3246 2 5.863921318806907 20.42550476832144 35.482324626411135 -1 0 1
2491 2 5.604914065106459 17.948698416283563 35.84499059952669 0 -3 -1
2886 2 6.39056515715991 16.984020907711653 32.94324280580099 1 0 0
134 1 6.234373754764956 20.939062190631766 30.912590825277285 1 -2 0
1530 2 7.9075637088788255 22.540955276731516 33.753300614808666 -1 -1 -1
2565 2 5.2423342234920955 19.18516023637484 36.66710825182572 0 -3 0
191 1 5.1177524963570376 23.529866959823515 33.949346008132096 0 1 -1
1301 2 0.6965996535968122 17.55055732456492 33.55759556105451 0 -2 0
1056 2 5.220184110737069 19.66096702820021 31.738582820026796 1 -1 0
939 2 4.839321493042885 22.745909525569658 36.671433844150854 0 -1 -1
2454 2 8.577265910310908 21.130612129087694 30.786172380546052 1 -1 0
4175 2 3.304090454015356 17.487364850321995 30.602595978086477 2 -1 0
1954 2 2.188346225085552 21.460223182257245 36.32418540406991 1 1 0
749 1 0.4437862357943464 22.71420126936966 36.53245244156996 0 -1 0
4127 2 1.3638137414676337 22.151412062961178 34.695614007421284 0 -1 0
2713 2 1.9874592488762417 23.368887865615136 32.054942211824255 1 -3 0
2893 2 3.6942188821275246 18.74931875563651 37.278397107177234 1 -2 -1
1533 2 2.6532866246137963 20.974717896982845 34.926483213429 0 -1 -1
1129 2 4.506902466400004 21.692119610942733 35.23717308165669 0 -1 -1
2316 2 2.913574580214239 19.59572211339688 30.265317680261735 1 1 0
3244 2 2.825703752932307 18.357614776344498 35.881737313902576 0 0 1
1100 2 8.423252522869548 23.007664955466275 35.341574928455344 0 1 0
1346 2 6.929213618577355 17.572910329579557 30.428114237928757 0 1 0
2292 2 5.906484492965359 20.500545122306185 33.09626549429885 -1 0 0
1815 2 0.48810556289722173 19.296784924880953 33.796783238552145 0 0 -1
1898 2 3.1634684473125323 23.22086094952973 33.40008670417895 0 -2 0
1064 2 2.8445262040168426 19.30025556373983 34.4400263709351 1 0 0
2181 2 1.936426477404658 22.079991327507685 33.18287937656142 1 -1 -1
3633 2 7.128488332475764 21.14989586752752 34.00488552644752 1 1 0
142 1 4.203642469907036 21.621269987994523 32.66901150937253 1 0 0
265 1 2.48842375210076 18.581570366831457 32.55915061889389 0 -2 0
207 1 8.139117830504382 20.750363048492893 35.898769662816754 0 1 -1
475 1 8.743868617337478 18.564378665351327 36.02013152385664 1 0 0
1238 2 7.951186528577743 22.754671875180364 36.959044613840035 1 -1 0
2293 2 6.342647298402689 23.07529426657839 37.36207197869935 -1 -1 -1
2723 2 16.37036008129354 18.042939029899983 31.546248177584577 0 0 0
717 1 13.633368763408972 16.123781335561706 30.969687156273547 1 -1 0
3091 2 13.787512795656617 18.905393912505566 30.352011713512912 0 1 0
155 1 17.472780239854217 18.942340205958637 33.26599428550644 1 2 -1
1913 2 16.239348639998866 18.903357743674945 34.98748903706965 0 -1 -1
1004 2 17.495108915338715 20.722597285135947 34.436917630704116 0 0 0
3186 2 13.293360073224635 22.336950636041394 32.3692481335406 0 0 2
4145 2 10.129570834563191 23.800876952226353 32.006918037083885 0 0 0
2289 2 16.57088460331268 23.598207135312016 34.13318040727819 0 -1 -1
3368 2 16.109331581378314 18.19523158095538 36.88902099715619 1 0 0
2031 2 10.577713822462458 17.18196628410046 32.492003221953105 0 0 -1
1963 2 9.266896946816075 22.25016590222048 32.308735703765784 -1 2 -1
2698 2 9.192343521671818 23.20684049043099 30.508588998639073 0 0 0
3280 2 11.4513034753225 23.9735651524653 37.022461210442174 0 0 0
4295 2 15.654241196701571 16.768941047661876 30.59487898404734 0 -1 0
334 1 9.569453868828436 21.597014182196347 34.18936255887485 0 -1 0
3599 2 14.668347940269294 23.696077372172063 32.728437400780265 1 -1 -1
677 1 16.5420984296841 22.003661272502626 32.7671588306996 0 -1 0
2664 2 10.098852808716792 23.05856338038371 36.04698528367577 -1 -1 -1
4053 2 15.697364905516704 20.291719952957905 33.90553581393894 1 -1 1
3949 2 12.795026436975895 20.71994208854894 37.22781545623709 0 -2 0
2540 2 10.86643831393426 22.470157432557414 33.11436580930045 1 0 0
3931 2 9.877399182790858 16.62691995357381 33.81992044863287 2 1 0
3004 2 13.57767476873349 17.048611689275653 32.92721743487308 1 -1 1
1275 2 11.528894527408779 17.24609607663713 36.285270066253865 0 0 -1
2955 2 14.636416568150436 21.641063129946133 31.708735930954617 0 1 0
1492 2 12.131949544350206 17.15138022718635 33.53869294686105 1 1 -1
2868 2 15.133543373923816 19.219669323543677 32.54693946918103 1 0 0
2846 2 13.69144932425706 21.58528782429962 34.417321333719656 0 1 0
1632 2 11.294352018689132 16.29429811469697 30.845881580654318 1 0 0
1847 2 13.25766675807923 23.387415705770785 33.58561164804057 1 2 -1
1235 2 11.119740954332753 20.206832197010257 31.550323605867725 0 2 0
2015 2 14.555096678229473 21.253677524172403 33.24422614855215 1 0 -1
2938 2 14.828242289683327 16.92982546731254 36.65392881764996 0 4 1
449 1 15.7730783639549 16.789682591123523 33.03302477972992 0 1 0
1795 2 13.167166586954608 17.647437740840452 36.67525057375791 0 0 -2
3283 2 13.595037625778614 19.323355525122984 36.890940150243544 -1 0 0
2841 2 14.437758092894514 18.124320281838926 31.569275212365216 1 -1 0
4239 2 16.879805179883654 22.935113813294706 31.16983724643598 2 -1 1
4253 2 10.044766503462743 17.39992820529686 36.96682578860507 0 0 0
1102 2 9.47308350153913 19.832137848239114 30.758204395815124 0 -2 -1
664 1 12.417657274004782 18.521038879936853 32.101925454896794 -1 -1 0
869 2 10.388175175219622 21.263371530304248 36.41888119920511 0 0 -1
422 1 12.22832001603501 20.68757664311284 33.527827252315454 -1 -1 0
2204 2 9.089692086225106 18.11503822292441 33.01811144591314 0 1 0
145 1 9.608307559630678 17.66601322818329 30.774900196576702 1 -1 -1
2190 2 11.114488091294808 16.23584853536778 34.91606693203914 -1 -1 0
74 1 11.194778975589365 19.197627594860982 36.7787553231327 0 -1 0
170 1 16.79933007048589 17.051430034357082 35.45990932439802 -1 -1 0
2230 2 16.210494399263524 23.988767066218998 35.79514316419624 1 0 0
3959 2 11.975946183373816 23.793569703384357 32.32333381289061 1 0 0
1164 2 13.370244104479895 20.498413023090258 35.584693723933064 0 1 0
2738 2 10.20780481276533 19.249838516810392 32.36097805108389 0 0 -1
3367 2 10.250702130484134 20.006960698556973 35.164622298163074 1 2 1
582 1 13.21736576989981 18.91587378508673 34.537868142135586 0 -1 0
2020 2 8.968252784397963 19.544862228879303 34.23798218539327 0 -2 0
2574 2 14.816713353252494 19.793757462679466 35.25134894918848 1 -2 0
4244 2 17.27731013044581 19.094667992713916 37.15577992668786 0 1 0
16 1 15.739896683120849 21.848846038543485 35.12106519258926 0 -1 0
4319 2 18.410672675367874 22.222891935424435 31.92955752465054 1 -2 0
4230 2 24.583502762649182 23.51090762344098 31.92264724845164 0 -1 1
4307 2 20.580714466693067 16.7804913664326 30.209039983652747 0 0 0
3978 2 25.59180293130455 23.762964283268595 33.13303901300248 0 1 0
2707 2 20.78213775000398 17.887043335653097 31.7383532994223 0 -1 0
150 1 20.076282852975464 23.261186026820845 32.572487327744966 -1 -1 -1
891 2 20.396431557595776 19.643997617795357 37.294026534251095 -1 -1 0
1865 2 20.17823567040065 23.25172556516094 34.23798931643316 0 0 -1
1773 2 18.703517287246285 23.499050010610787 31.009242511602643 -1 -2 -1
3674 2 21.229568315083792 19.661563755105952 31.424852456492612 -1 -2 0
12 1 18.156401279493068 19.1829657144821 30.720091073086728 0 -2 0
2363 2 21.004622901887352 16.399976817090632 36.84392591201404 0 1 0
2071 2 21.2130044063352 20.65311174092578 34.189084786201605 0 -1 -1
316 1 24.691556197975345 18.515051136462944 33.16295748459172 -1 0 0
397 1 19.968288025681307 21.370676506432353 31.085724118385333 0 -1 0
848 1 25.7555925287531 21.10537796062033 36.35230474033346 0 0 0
95 1 20.590961652022504 21.489231465808082 35.833875294381365 0 2 -1
1537 2 18.198982832464175 20.79767902579787 32.846579708723155 -1 -1 0
2468 2 23.07584198906487 16.896545025255378 32.84224101830872 0 0 0
2904 2 24.943477269760052 16.403523438433936 35.0269327781248 0 2 0
2619 2 19.406503317498952 16.839895783279346 36.27590905363908 0 0 -1
1902 2 25.916723293670966 16.364002421096238 36.46002686259936 -1 -1 0
4302 2 26.036032984691474 20.88526806298659 33.50196279732413 -1 -1 0
642 1 18.201390179429904 22.4365551628794 35.09303843819857 -1 -1 -1
3562 2 18.45936718766114 17.754120482349613 37.3914335235375 0 -1 0
3199 2 19.641197597802712 21.56216950027182 33.53339851761262 -1 0 0
4270 2 24.2210471968959 19.373913817509447 31.56010257494666 0 0 0
3449 2 25.59725253203246 19.22886800752905 36.81837043349157 1 0 1
895 2 26.084203068376045 16.349228042677098 33.38478665055831 0 1 0
3222 2 22.510969949223117 16.78210915425379 37.40588269864181 0 -1 0
1573 2 20.359795161505126 23.468629098107876 36.74111121679622 -1 -1 -1
2485 2 22.68757050142296 21.2109555659841 33.511915533988 -1 -1 0
438 1 22.482293029064955 19.252130493792613 33.087172221369556 0 1 1
1482 2 22.56812907089386 21.223567840516445 35.10712603770563 -2 -1 0
368 1 18.668751573111724 22.612490741185653 37.160866556767736 0 0 -1
272 1 24.529766743964885 17.170757534109576 31.303582239970744 0 1 0
921 2 18.44585466409141 17.092908923608114 34.362723958812005 1 1 -1
3844 2 25.89238170903899 18.35014452482055 31.435675474677243 0 0 0
2488 2 24.444421379381364 23.92742983365033 35.435476184671266 0 0 0
3804 2 23.246141874493134 18.89108705556341 36.75701386299884 0 0 1
2543 2 22.03281811638003 22.561084352798815 36.61201030585894 0 1 -1
3647 2 19.131247640001803 19.51011143835033 32.80796986174554 0 1 0
766 1 25.466898416960518 20.616704952885918 30.956613958664704 0 0 0
3843 2 21.87941003444103 22.336823744347903 31.55254723821611 -1 0 -1
758 1 20.41170751887451 18.805491983624528 35.262009794254226 0 2 0
3550 2 23.74159259519684 17.792729443926078 34.857577369202914 0 0 0
502 1 24.381464114751097 17.435704399586598 36.726534487419705 0 -2 0
2349 2 21.95948428345171 19.895643287000972 36.51085814971329 1 -2 -1
1610 2 19.438943793880323 17.835124230644738 33.13774501120822 0 -2 -1
1165 2 23.114065446207473 23.459433846126146 31.15376380554682 0 -2 -1
3432 2 22.826643297807937 18.400330001772453 31.26674229363787 1 2 -1
1263 2 24.095250293040493 20.59205435281723 33.05270134384249 0 0 0
634 1 24.220071641348046 22.474693245893967 34.13833467394272 0 0 0
2856 2 21.136500548667563 21.33130060913684 32.57267669226013 1 -1 0
2836 2 19.08481093260315 16.494913477327238 31.18799170019306 0 0 0
3494 2 17.871369799820602 20.31879963423325 36.11707976109619 0 -1 0
2199 2 23.86094393527878 22.17029185631725 36.330916246888094 -1 -1 0
3590 2 24.736294580919235 22.78047397276245 30.41505360462144 -1 -1 0
1604 2 18.128667374455055 16.986015481525854 32.50184850093524 -1 -1 -2
4138 2 27.77161912475506 17.78048189696996 31.773916982011688 0 0 0
3512 2 32.73031678421691 16.23950392147801 37.25908306367135 1 1 0
564 1 34.480340992740025 17.77593284468754 31.723414543100095 0 0 0
3218 2 33.90737005588906 16.474865174191407 34.42835007009077 -1 0 0
3248 2 26.881762838336815 21.8728049476653 32.30673658635522 -1 -1 1
3431 2 27.71122173031152 17.331179471443704 33.5474592865214 0 3 0
1752 2 29.206432941784804 18.385317763735543 31.50200056841579 1 1 -1
1763 2 32.035686594059655 19.74495106424991 30.164539168947353 -1 0 0
3179 2 30.23662325352446 18.35750987205897 36.909750335954165 -1 0 0
2533 2 32.42929771148938 23.394162325417334 31.846558940866874 -2 -1 -1
3237 2 33.1843421604255 19.41080146694066 31.210445952940557 1 1 0
3263 2 30.685649957762774 17.039318209298955 31.2602137206174 0 1 0
3767 2 31.48909274952054 18.52561371137059 35.859036938623525 0 0 0
3612 2 32.318221409843915 21.341978888717442 35.53427555049136 0 1 0
2157 2 31.04422223784899 22.983837700125846 32.83478496247212 0 0 0
2527 2 31.807620188158594 22.78365026849135 30.4105805773122 -1 -1 0
2544 2 29.811406956294032 18.24591949488405 35.221562064000885 0 2 1
1447 2 34.392312414707305 20.28457389545128 32.31282893231205 0 1 -1
2656 2 30.650869091255505 21.551063083091194 35.40144337145717 -1 0 1
1887 2 32.36456995604958 17.102680984060413 35.42542480513489 -1 -1 -1
1678 2 31.47683978896022 19.396517613806544 37.20759472860262 -1 1 0
3243 2 27.699114795211155 22.754568731785326 36.362100405687045 0 0 0
1072 2 33.741386834055504 20.630823750228544 33.900978958583906 -2 2 0
3096 2 27.541916462027782 16.791605104881135 36.29536968520842 0 -1 1
2139 2 31.690409327006574 20.34007316842677 33.94884599154632 -2 2 -1
2381 2 29.11434320693406 21.303849512800802 36.09968972512733 -2 -1 0
1709 2 26.94687056648444 19.979031501673397 34.442679778942086 1 -1 -1
3515 2 28.385155574631934 22.231674695213 33.85196457226213 0 0 0
987 2 33.932641102205 23.21903400232722 30.898981247876534 0 1 -1
3081 2 27.55502577289249 21.35224907742989 35.193474223162745 0 -2 -1
3990 2 31.99578641323326 16.180808871904336 33.83564172841522 -1 2 0
144 1 28.166702790612188 19.14040996973322 36.357352227107576 0 0 0
2709 2 28.609091151230395 17.251770798814015 34.7948012680385 0 -2 0
799 1 34.318636158548344 23.124793605649124 33.4448508667295 0 0 0
126 1 31.14271563931963 21.53298223517797 31.77552155224554 -1 -2 0
687 1 26.193883934492277 18.126929400079803 34.99686824416204 0 1 0
540 1 27.243290634074356 19.546919277292766 32.57764840058979 0 0 0
1488 2 29.14371416564883 16.229485710447236 36.71103294979453 -1 0 0
2672 2 32.90937954436846 20.109122137383864 36.47539926907289 0 1 0
2172 2 32.86847191249433 20.471077085292187 32.56376006040344 0 0 0
2196 2 29.476014818037058 20.26163332218664 31.22216264293034 0 -1 0
3226 2 28.213853473648477 21.044078968466245 32.07274942180271 0 -2 0
2757 2 33.95682875784068 21.808578221082897 34.978794112721374 -1 -1 -1
3290 2 31.366705896163165 23.017555540554966 35.85994773792667 -1 -1 0
53 1 29.238135670886003 20.448035087216695 33.964244549311196 -1 0 -1
3403 2 31.044848648168163 17.660884514170668 32.86106963000933 -2 -1 -1
2117 2 30.01910023739091 22.41757580791723 34.13709005693268 -2 -2 0
1003 2 31.27733697424205 18.806144638219962 34.17208913045922 0 0 -1
2037 2 26.48292248095846 23.01808372715565 31.15106920791158 1 0 -1
1006 2 27.5304822448126 16.203120861210937 32.20584090355406 -1 1 0
3149 2 30.470352998302673 23.514414179259354 31.355810281585256 0 -2 0
3956 2 32.80318606983202 16.818659236131666 30.33850835941316 0 2 0
1639 2 27.691113265593508 23.94825546210579 30.36451663461817 -1 0 0
2835 2 31.327555388626998 23.92008483916708 34.40674468830619 -1 0 0
3726 2 29.907568935999024 20.31072401881768 37.29888620383188 0 1 0
1506 2 33.001113305616116 23.229441521744548 35.05605746547815 -1 -1 -1
3549 2 28.985739030992967 23.509395043851974 37.16843178688241 -1 -1 -1
3294 2 34.512545437109864 19.710298477382793 37.29467971290633 0 0 0
382 1 26.507829904456486 22.76107483119643 34.25100943260175 -1 -1 0
2052 2 30.71091085499905 23.51946832242775 37.33641411541643 -1 -1 0
1727 2 32.10627019773598 17.91864240679611 31.42129902433792 -1 1 0
1907 2 34.67504355855182 17.455625793154773 37.37036440834752 0 0 0
1640 2 4.161817270705917 8.105735964230838 37.804406485687544 1 2 0
1699 2 5.68019011492779 7.158447812744503 43.08994054373991 -1 1 -1
894 2 2.2227581280248283 0.65571627875656 41.213454871411116 1 -1 0
1300 2 2.318386919677871 6.670115244623596 37.641144641674494 1 1 0
2183 2 0.44824267904390386 0.2149295958622531 44.004956609032035 0 0 -2
3343 2 6.933788241403421 6.772049500442006 38.369377626258235 0 1 -1
3679 2 4.294640050066426 4.572740487623843 38.775942463942954 0 0 -1
1868 2 5.340498888586014 0.5687042609216234 40.49581285680106 1 0 1
1353 2 0.8036485172194483 6.432982392765143 38.81025152095185 1 -1 0
93 1 3.447382389932755 7.812682872420394 39.53312140837996 1 -2 -1
3709 2 6.679347904189855 3.9858125331122443 41.174175171435294 0 2 0
217 1 3.869555764473975 7.696847692088771 41.822902661864426 1 0 -1
823 1 1.2112583821830551 7.525461886458132 40.4053334509709 0 3 -1
1266 2 6.894181216908916 7.298308714509109 39.92632866813087 2 0 0
716 1 8.672388131179826 3.3090940017774564 41.99262360735984 -1 2 0
1855 2 8.212198254494039 1.7695810784527264 39.054536900488586 0 0 -1
3282 2 6.645052478799127 7.286593094460315 44.564958764704905 1 1 0
2153 2 1.466278899781086 4.754816545146928 39.591229345705 0 1 -1
32 1 6.128556954205512 6.180815126125234 41.37133684800518 0 0 0
1368 2 8.315283098570768 7.947646234200031 38.73774366918172 1 0 0
4252 2 3.081651295688609 4.609040871077223 40.16818389765234 0 -3 0
4129 2 1.3534156220312814 5.745110720469585 42.34357083180164 0 0 0
3847 2 6.52927310632336 5.812747472302676 43.60128607502094 -1 1 -1
2734 2 3.7926359350187084 7.3310250182277255 44.05098073483133 0 -1 1
3740 2 3.7424514013403942 1.3718193356754347 40.75501099095338 1 0 0
2970 2 2.637858635805136 0.9301790328906306 39.52897971090648 1 0 0
3315 2 4.210585165652867 6.185417187671555 40.05416255512198 0 1 0
4223 2 1.6223000838512396 5.046026239998715 43.66603916340623 1 -1 0
2520 2 7.681393824180022 5.193207020866563 42.32887422054902 0 0 0
3145 2 7.583594477558498 3.131363100068451 40.100891811034224 -2 0 -1
4104 2 7.559284222041974 2.11818364518154 43.16491557142437 1 1 0
3729 2 4.657302770630527 5.4639574493843215 43.09121882275736 1 0 0
1883 2 3.277153059117787 1.8805452982797974 42.1688558672801 0 1 -2
3858 2 0.7827477530355444 0.2787288093149216 42.14395938453208 1 0 0
3653 2 3.1521113355283275 5.859375170887186 43.85436492442221 -1 0 0
2355 2 4.003831988986416 0.9974473149425954 43.67057312268019 0 0 -1
920 2 2.8329968873912033 2.3927337844143874 43.80848707232354 0 0 0
2151 2 5.064090161402063 4.137499842260702 42.10730053367913 0 0 -1
2058 2 8.22747550734092 6.810940304667247 41.495820708245105 1 0 -1
3809 2 3.579424084877569 3.5447749790947753 41.397163821891155 0 0 -2
1008 2 0.5735597399221999 6.626351646606594 43.71505037326582 0 1 0
3756 2 1.1423314843199375 3.1533590860311786 44.16700432995937 1 1 0
4250 2 5.497366840672142 4.26062815080937 43.73852473298883 -1 0 -1
1686 2 2.536504144072519 5.927095297463618 41.06789483570591 -1 0 0
1670 2 6.681653639499474 3.156035104555891 44.30145975860685 0 0 0
3861 2 6.322255476963038 3.1334590926627217 42.65241797263293 1 1 0
753 1 1.633129740376629 3.431603596581576 42.14454156712172 1 1 0
2650 2 1.2963174818493428 2.3556958936465398 37.87699368299096 0 -1 0
685 1 3.7271415568569357 2.7202107594914153 39.06671443279454 0 1 0
3846 2 5.234528870721181 3.4771218381761972 38.04128958052809 -1 -1 1
3794 2 7.940986773717834 3.349681701344084 38.32434092357152 1 -1 0
674 1 6.959034999949671 4.792312521958485 39.192244984662715 0 -1 0
3595 2 6.875001254404207 1.3808158890752644 39.959347968767666 -1 2 0
389 1 6.019674651663859 1.0103885930399432 42.75211633206815 0 1 -1
140 1 8.675358390901136 6.177911916458428 39.36835577375234 1 1 -1
3960 2 2.768262983452511 1.4671756080809386 37.899605799347164 2 0 -1
3144 2 4.147001218956984 6.3067773855357645 38.178098536542485 1 0 0
1002 2 0.6596725189257082 0.36141889181169556 40.55146245760954 1 1 -1
829 1 1.2431792716281498 4.6779568539632645 37.59911493538586 1 0 0
4199 2 2.210068064142291 6.81290107865241 44.72653424400066 1 1 -1
1914 2 2.6458468157768023 0.9114504033683157 44.86582297923403 0 1 0
2147 2 9.254910493322564 1.2682188024253152 43.06441923429964 0 2 -1
2977 2 10.772468742926803 2.4815427011470583 41.27618455356068 0 1 -1
57 1 9.966695445171256 3.0838239618607792 44.27866659453044 1 1 -1
3668 2 14.489303715994115 2.910085175780091 40.724942960146315 0 1 0
3485 2 15.073214516410747 5.558136904339847 38.13170512486964 -1 -2 0
2212 2 13.795357314471467 2.375878667559294 39.16296432901081 0 1 -1
329 1 10.542340136782519 3.208141919501856 37.674920928233306 0 0 -1
2337 2 13.026136693672314 3.245289797594041 41.78625477131939 1 0 -1
2470 2 14.81930320061401 1.1061283135176239 40.35585126729118 0 0 -1
2474 2 15.747030545156132 4.244883820966964 44.26570927242775 1 0 -1
547 1 10.717167935933935 6.255780479388587 44.322434864211004 0 1 -1
3344 2 9.261781715062627 2.7775296223227657 39.9903268666247 0 1 -1
2796 2 15.993247321788376 3.784440375769158 40.52379519944108 0 0 -1
1854 2 9.55317548233637 7.210022154022174 37.87178353756746 1 0 0
394 1 17.520391022766912 3.081954076760447 42.614265790103026 -2 0 0
222 1 13.528155758099814 7.365235286152454 43.52493656176812 -1 -1 -1
1776 2 17.318368434279492 6.198828227154543 40.033473778233684 1 1 0
296 1 12.89440379040212 4.34410771425098 37.59573892317047 0 1 0
1574 2 17.02369390467891 6.23438145305505 44.0908838922343 0 1 0
1630 2 10.77562057368958 5.7272986062842115 42.40225208774027 0 0 0
2781 2 14.35643367192983 5.718204782538409 42.179548970726096 2 0 -1
2775 2 11.685970643208842 5.820076509665649 40.49797120892815 1 1 0
1822 2 12.192709110742937 7.4091255373995 40.73321553267178 0 1 0
1842 2 9.669687559716296 8.049870177142502 43.609740338612504 1 -1 -1
274 1 12.01323106851568 2.1839803076252036 43.035567668105934 0 0 0
2871 2 16.184290943085315 2.0279158422358363 40.96844139928905 1 0 -1
2708 2 17.181363816510977 0.4595074389550863 38.080150664030626 0 0 -1
1627 2 16.13018040322126 4.884995517490358 42.58002043315006 0 3 0
2687 2 16.088653111709654 3.8662246435946783 37.69454666728353 0 1 -1
4181 2 11.124717226119197 0.7070453188561114 38.59517133460501 0 1 0
1782 2 9.47189844430069 6.685648017912217 42.53184575897198 0 0 -1
1584 2 17.14846526895795 4.942472847786009 41.078934644309754 1 1 0
4283 2 14.288193185838951 2.2353755775496165 37.72920493186062 1 1 0
3632 2 14.875420281505793 2.1905126659686203 43.97278998161756 1 1 -1
391 1 12.589518494664905 4.708080770208759 43.045015188345815 1 1 -1
1312 2 16.106056146985974 1.1677563890421456 42.31706113707138 0 0 1
3391 2 10.543385965324985 0.804091659567475 44.14261188593448 0 1 -1
1711 2 13.730945881562699 1.883538756633258 42.74623895466659 0 1 -1
3350 2 12.063930494681312 4.209629612339003 40.99996246507531 -1 0 0
2220 2 14.592037109752418 4.262648660401073 43.11260341767353 0 1 0
3027 2 9.672605681131564 0.8729740408585908 39.272601104804785 0 0 0
2594 2 10.497509455393505 5.877017425594447 38.41163506742908 -1 0 -1
2586 2 11.99065707224221 4.768438855988773 39.24930180984986 0 -1 0
3762 2 15.55901591664862 7.431803247828778 44.039242063489375 1 1 -1
3981 2 16.353430724007193 7.802797433990324 40.018584787044404 0 1 -1
2420 2 9.511529414276445 4.524303226641152 39.07797858940531 0 0 0
3694 2 13.958219078195748 6.98372374294598 41.387639199740775 2 0 0
3008 2 14.9089863917054 4.0105008321100915 38.805501464264374 -1 2 -1
3786 2 10.539233462350222 3.9690594474879224 42.208539074293114 0 1 0
3671 2 12.00239635454057 2.860604241100001 39.93407891389256 -1 0 -1
4006 2 11.531687839515794 7.722508840019896 37.96873334543242 0 0 -1
381 1 14.018379977800592 6.977741349349813 39.25095622963477 1 -1 -1
1835 2 9.421639713037473 4.914611692759249 43.168534187262765 0 0 -1
1990 2 16.643451746992564 6.399873688194428 38.554846144776214 0 0 0
3014 2 16.123028453777128 1.3357811890195321 44.323819006842236 0 1 0
3975 2 14.32465724089178 0.7942130022163552 38.592840862956876 0 1 0
522 1 11.716759710356623 0.7743227658623951 40.77123238995112 0 1 0
3582 2 13.015963554732227 0.4048086517267825 42.44026131505376 0 2 0
3349 2 12.383231084857762 3.2115743234945167 44.8178570950996 -1 1 -2
598 1 13.13888075123752 0.5854087229530102 44.53281531983543 0 0 0
2814 2 17.19081048707284 8.10214272911227 43.624846926915524 -1 -1 0
3054 2 21.394975662221835 2.1512820088321396 38.45698347527972 -1 1 0
2936 2 22.364147838071304 7.73557460624042 37.779160270413165 0 1 1
4028 2 25.404261638125536 6.825544776920935 37.804947865404465 0 1 0
3841 2 21.537785543592232 1.2258204512467765 42.946677366432226 -1 1 -1
2958 2 18.625688576085434 0.7322271343338518 38.08662145738047 1 1 0
1419 2 20.62685575464766 0.5787390412586091 38.18956908356655 0 1 0
2881 2 18.80781127288038 3.2632983350009965 39.230084482889175 0 -1 0
3103 2 24.182307489476553 5.183745400748916 37.9366172829543 -1 -1 0
3764 2 25.590889968682074 6.794194647156833 40.54288953911043 0 0 0
2353 2 21.647475352097114 4.390745909135604 40.2795114219966 1 0 -1
1444 2 22.22421464387957 2.6523456966591956 40.50873987756747 -1 1 0
408 1 22.338469732424198 6.207051023248266 39.352335780316295 0 0 0
2170 2 20.703318549002947 1.93580820966238 41.642613061830495 1 1 0
190 1 22.908465669567363 3.562387854658474 38.86450014503057 0 -2 0
508 1 20.42481491018523 4.502361442575731 38.3702781660619 0 1 0
3262 2 24.295411413954735 0.2601371438752162 39.81933367922065 1 -1 0
1295 2 20.71403132951846 7.500542545638333 40.25374172485609 1 1 -1
3463 2 19.006168659832653 6.360607165087775 40.69390038099696 1 -1 0
3791 2 23.991935537380304 0.4086518814264498 41.34779496449042 0 1 0
3676 2 19.13977322376481 2.7967756787974674 41.06914791199989 -2 1 0
346 1 18.758924834873547 6.45202357191149 42.742698536865795 1 1 -1
2947 2 24.960135381316753 2.763558248702329 39.148263525602054 0 1 -1
944 2 24.444810117577095 2.826415337833179 44.350977810766956 0 1 0
2663 2 24.157959737007552 4.415070634651919 41.63710475384772 1 0 0
1322 2 17.576083144887296 2.9525735647260865 40.319398043197324 0 0 0
2035 2 20.197258548930932 3.668524675357768 42.3173498134066 -1 0 -1
3131 2 22.287993536147635 5.8626227578547905 43.07484323212925 1 2 -1
4211 2 24.517819998011518 7.496787671923468 42.53225273710206 1 1 0
3818 2 25.883372611544406 0.4451534053435995 40.94819291232183 0 3 1
3837 2 19.444442527350695 3.667487583968338 43.7075546950068 0 0 0
2213 2 22.704446128945293 5.23278516419249 41.56049167308529 0 -1 0
226 1 20.815641562946027 5.869427500937347 41.61291039776614 1 0 -1
1015 2 25.311502908792917 3.8337076403812187 37.959323482461286 1 1 -1
2944 2 18.041500538696333 7.80317474873576 40.59296490392209 0 1 -1
244 1 23.79302618489585 1.1398766761522179 43.19961495872265 0 1 0
1982 2 23.86888458807264 6.125456562648444 40.87127103937944 0 0 0
4288 2 20.71686300511653 6.862339873370096 43.3563417813573 0 0 0
3479 2 19.974074930588017 4.420203817814526 40.29178302318736 0 0 0
3547 2 25.39026950421807 3.505739285626773 40.82469040886919 0 3 -1
1121 2 21.164754601340885 1.1944611506825562 40.13357603077634 0 0 -1
2974 2 23.653821812577203 2.1485995940744687 41.44661535180701 0 -1 1
2549 2 23.953675018075522 1.5011700778374317 38.62606894860994 -1 1 0
3402 2 24.39607959901143 6.2677296491895795 39.33043235959182 -1 2 0
4036 2 25.736370965385106 2.27879661730004 43.313225606336694 -1 -1 -1
857 1 22.59653723427004 7.673548726830322 41.764832174016405 -1 0 0
2427 2 25.252000443459796 1.7826677227285967 41.766746509029865 0 1 0
611 1 22.27693066483196 3.3675181299278383 42.55497647617559 0 0 -1
3450 2 24.278264828930517 4.635666650039643 43.37112081287746 -1 0 0
143 1 26.09193248141207 5.48898630944537 42.222583369895695 0 0 -1
456 1 18.130180181277368 4.575041277112083 38.1056041395278 0 1 0
110 1 17.94306115185469 0.5994194191607304 40.112678359546486 -1 1 0
1316 2 19.627397361285517 5.250715877178788 44.64882277734391 0 0 -1
640 1 17.99528395387103 0.3859536111627029 44.20252989910748 -1 0 -1
1133 2 22.187116171489162 6.52060558158952 44.74006540282845 -1 1 -1
3991 2 18.87856466337741 2.072869328089545 44.15330990492141 -1 1 -1
3993 2 24.178877240062864 7.670750717834629 44.148776489502886 1 1 0
2864 2 27.059188123456092 6.066541024719603 38.40197872337779 0 0 0
942 2 26.45305041256722 7.762708453651986 41.93027401550567 0 1 0
2467 2 30.580072747736672 6.2852511329302665 43.73910033834418 0 0 -1
1761 2 31.310830213758006 3.2136220570989895 44.811120515818615 0 1 0
4187 2 31.671089714017956 0.5310146993902145 43.075489389837706 0 0 0
2858 2 31.642997172011082 1.5072732587990347 44.420720813260296 -1 -2 0
1958 2 28.23920992430627 4.808882525639972 38.137541274684644 -1 0 0
324 1 31.29962627433838 0.5756376847147291 39.30518318647698 2 0 0
4007 2 27.79017291626688 1.4271003762503442 44.46296237937477 1 1 0
782 1 27.942042496532874 8.044488646054457 38.14782627140773 0 1 0
1271 2 28.034985691567545 4.410229322453207 39.68207636051905 1 1 -1
542 1 29.672050390893233 2.797103668417534 38.88804391865527 0 -1 0
3538 2 31.37291340366653 7.131845354064632 42.589153820407965 0 1 0
1198 2 33.09017478847122 1.7487413661908782 37.878703995487164 0 0 0
3187 2 31.350800627507912 2.7939562711850905 39.825110885581736 0 1 0
2253 2 31.247280631714663 5.76551636860732 39.72882004900271 0 -1 0
1948 2 31.19574834333672 4.229692038166365 39.00667576761814 0 0 0
2168 2 27.040622638305205 0.36603631564211025 39.65291410205109 0 0 -1
2076 2 28.34366019041006 0.5780876151566539 38.75684744321449 1 1 -1
2124 2 29.60307477081242 2.2845708175496697 40.755791323974016 1 2 -1
2382 2 27.10325636298734 5.70226888216169 40.244817979159045 -1 -1 0
4180 2 33.7924940454006 5.568081852132415 44.592380515116616 1 0 0
842 1 29.191070375673387 7.8645815436731805 41.40835782990053 -1 1 0
3325 2 33.890912282244685 5.3432263023889615 42.940722385417644 -2 -1 0
3092 2 27.049003447904802 4.168572818933907 41.224599670789075 -1 1 0
1755 2 32.0191097800301 6.756033894906842 38.150677891370684 -1 0 0
1080 2 29.463683107614628 5.913811675325052 44.786615980806225 0 2 0
3465 2 34.12613424670623 5.541227422908125 41.26902477172073 0 1 -2
4150 2 27.57545779620286 3.1901071107342895 44.20166599266098 0 2 0
1380 2 28.847319751395748 6.273615913913643 38.07298683089292 1 2 0
3513 2 26.49042313602351 4.101437458859995 43.62611674099027 0 0 0
4289 2 34.35435756517472 2.729416361523123 42.40411007291916 0 0 0
398 1 31.06599906753555 7.988007746086027 39.35704700050679 -1 2 0
3689 2 27.893367497216847 7.5755660584299225 44.644319148747314 0 0 0
2433 2 34.32776703739978 6.968345821959198 42.04078147443254 -1 -2 -1
3470 2 28.013969236356193 2.7156726164645075 40.79041734718804 -1 2 0
1886 2 33.95125450384779 7.331502602055431 38.5390567016529 -2 -1 0
623 1 29.29324182771654 2.6158348969863874 42.71478688966373 0 -1 0
1043 2 28.352977343938225 6.666839144890215 39.83403114947472 1 1 -1
3583 2 33.9610492019133 1.5578725197140473 39.10246132713323 0 0 -1
1768 2 28.212038036888945 0.6052371584472038 42.778698637454696 -1 -1 -1
3413 2 32.47465724349766 5.233407387885229 38.63726980419339 1 0 0
2273 2 29.5541486316294 4.583654316842589 43.505114997282305 0 0 -1
2652 2 32.38348449803483 1.8326041595095819 40.55365215945797 0 0 -1
3601 2 33.850112181874096 5.523251039518855 38.05212893357066 -2 -1 0
1007 2 31.00471669168833 2.4404748447074103 41.580077072792804 1 1 0
881 2 33.806635853761506 1.6510496124462744 41.10072552522619 0 -1 -1
1065 2 31.977751304748562 6.829534012493681 41.04975406124 0 -1 -1
2819 2 27.951910628584606 4.380812661157473 42.69622636511102 0 0 -1
4140 2 34.3864804936231 4.3503292749669225 40.17297312890321 -1 -2 0
1612 2 34.728348522423445 3.344353356491798 38.77348850274926 -1 0 1
2962 2 29.49559176534306 5.126304623540961 39.26280029302403 -2 1 0
1561 2 32.20265286009381 4.794162617186521 44.3721461772517 0 -1 -1
2102 2 26.631921739174395 1.9225729259954767 40.64602530554412 1 0 -1
2718 2 31.03244595132796 3.705822350644472 42.973971600842354 0 0 0
864 1 32.78932295362617 3.78067651515605 41.80571852373909 -1 2 0
1592 2 31.75468402909092 0.718333433838361 41.50837696849341 -1 2 0
4025 2 26.184757389694056 2.222840126734619 45.022327877859 -1 0 -1
1589 2 6.080437231699512 14.383380129499109 38.14013994022288 0 1 0
2295 2 8.205113684778812 14.875645937528061 38.32457312990125 1 0 0
3916 2 2.25417534503799 12.346018454381625 39.333611560398595 0 1 0
2960 2 6.790092104686123 15.954364332639377 41.36619438302154 0 0 0
3535 2 2.326342133832645 14.163890096966881 43.471129347161146 0 1 -1
4317 2 1.326108666556265 15.556843911462181 44.21210106053883 1 -1 0
3075 2 7.665849382092404 14.461240445571109 43.97249400486599 -1 1 -1
3779 2 7.320426853405909 14.689426467986195 39.90860243760422 1 1 -1
3745 2 4.75382649973587 12.155769424932128 41.71209262667229 0 -1 0
2748 2 3.010356438983185 9.433973308730165 42.0485364873991 1 0 0
3486 2 1.9269020586153522 14.874587060107459 37.91394335751242 1 -1 0
1333 2 1.1480959674182745 15.503153885595037 42.23478196704561 0 -1 0
2538 2 2.472825359739673 12.795347111409441 40.8301738385443 1 1 0
2068 2 0.9940703744554247 13.702621658439687 38.96467961951981 0 -1 -1
3618 2 1.7325504682087134 15.46621268288364 39.298360150398736 0 1 1
566 1 0.9190075690089652 11.769887380778671 40.83176970006239 0 -1 -1
1 1 6.0256192293966615 8.68429795766666 41.48337754798975 1 0 -1
1066 2 4.176514056656863 9.527423102488827 40.76228317297646 1 -1 0
1522 2 3.770995328069907 13.026621690745229 39.798944431859056 0 -2 0
3854 2 4.785136611529675 9.835341218783645 44.267148413743 1 -1 0
1186 2 6.14671320663907 8.942127799621694 43.55425363219156 1 0 0
3898 2 5.152404979550837 13.666806910448438 42.48330968367757 2 2 0
4026 2 5.202866589803911 13.051467881325875 38.69539318914598 1 1 1
691 1 5.356177280325966 14.288228101979392 40.51338869489934 1 0 0
440 1 2.7002964023979787 14.679724873773244 41.156048694874336 0 1 0
2166 2 3.110454367547206 8.725755433174633 43.69405948436413 0 0 -1
3777 2 7.836881612605338 8.827237769728523 40.58118108088796 0 1 -1
42 1 8.167470442259194 9.724868264267398 42.73452274772219 0 -1 0
3945 2 8.527756473133651 11.744139785021112 41.35391766793324 1 0 0
1547 2 5.117286603036867 15.68830495800496 43.90583428761254 1 0 0
3287 2 1.9168886639174298 10.79179668806483 42.252373835186816 1 0 -1
186 1 6.809350873295266 9.115826873434639 37.69954749216639 1 -1 0
1750 2 0.945018465502426 10.088883877619073 38.22103009197366 1 1 -1
1413 2 0.9181733473463597 8.303428107819917 38.04914402858108 1 -2 -1
4186 2 6.017790693721146 10.596940860242587 42.70509386302745 1 0 0
3012 2 1.3067755645925694 13.483292050463012 42.28009622075245 1 0 0
102 1 6.971899459221252 10.650261900360285 44.509697922529874 0 0 0
2079 2 3.847401353537441 15.75646237342628 39.74131595643505 1 -1 -1
3796 2 8.527824677492903 13.040190919602589 44.48655009085747 0 -1 0
719 1 6.980203999118939 12.588963877117155 43.0898348956299 0 0 -1
165 1 8.750515057379737 14.147752935034267 41.76587964441039 1 0 -1
2066 2 5.677750427430565 10.80300429100477 40.77526838232199 1 1 0
1276 2 7.179440602146265 10.765796117249556 38.82540245456617 -1 0 -1
1145 2 3.5468423182571325 11.120090523798245 42.02666352411275 0 0 -1
1742 2 1.8715475212962653 12.531092687436585 43.76495868036527 0 0 -1
1265 2 8.568601492737333 9.703141573191633 38.77445146836148 0 0 -1
441 1 7.031218379225966 12.551510087075272 40.26191352226916 0 1 -1
2821 2 1.133015603968969 10.832381347399894 44.69745179801195 0 0 -1
1837 2 3.542704783415336 9.700329980564167 39.00882387731822 1 1 -1
1848 2 2.440049600614926 10.849833404249864 38.510775627184294 1 -1 -1
3136 2 7.735377627540524 10.696938113769495 40.532808800504974 0 0 -1
1437 2 6.784683178666328 14.386263072554188 42.19736048743667 0 1 -1
3717 2 5.891450985196745 14.278280044332286 44.206105979654055 0 -1 0
585 1 2.893446277814302 10.84165993999141 43.91983940426017 1 -1 -1
2093 2 8.140105316954802 8.473933100559092 44.663919549334786 1 -1 -1
2477 2 4.7561943063125245 11.550478354663882 43.49024229167633 0 0 0
4060 2 1.8667801204237904 9.445090246974807 39.667477295410784 0 1 0
3336 2 2.2241453833899554 9.37113333384815 44.995502401996205 1 0 1
3738 2 5.902406088468038 11.325812728858065 38.065400551917435 0 0 -1
2277 2 3.9229973818649513 14.900348888938733 42.89824620419903 -1 0 -1
993 2 1.3854113737693423 9.522692434331818 41.19342613411738 1 1 -1
303 1 9.638498840222972 13.087573421652143 37.68780786216826 1 0 -1
3692 2 13.60459522198884 9.146686703348502 38.516324307988704 1 1 0
133 1 16.169503445877304 16.045543855137595 42.40763319193257 0 -1 0
3079 2 14.306789702109208 10.315341502292407 39.69657928582563 0 0 -1
4072 2 17.296510119920043 13.915416707406337 39.66678932397417 -1 -1 0
1215 2 16.98698545181886 10.347770989784173 41.60671622552089 0 2 -1
1554 2 17.19785841261606 8.557259764349295 41.829052313952566 0 -1 -1
2629 2 15.644378411306358 11.421233416307643 38.72144859566358 -1 -1 -1
3953 2 17.406546207258693 15.397193241119243 38.39410791868512 1 0 0
2164 2 10.172693631743071 12.543924198419411 41.647607256395474 1 1 1
3947 2 16.001434418133144 10.672338703712002 45.024588820164176 1 2 0
4015 2 17.24271680958632 12.16407654654036 39.184878219429855 1 -1 0
3913 2 16.553451683562134 12.873695240757804 42.93415886484587 -1 0 -1
1852 2 12.207954296572296 8.23540317346152 42.239507082957935 0 0 0
4274 2 16.923248922746858 15.676657423506704 44.38967538391002 -1 1 0
3257 2 14.422761947750827 14.16887044416994 38.55950253634514 0 -1 -1
2910 2 10.27296103039067 11.839205570734862 44.409771708864604 0 0 0
3353 2 15.09959950979184 8.470183810502405 40.78749242055838 1 0 -1
2555 2 11.73891190855035 8.917284159170277 40.61368253513693 0 0 -1
336 1 15.736825510806211 9.400008620805195 42.86863322966735 1 0 0
55 1 11.99820257829484 12.950878556882072 38.91754909813084 0 1 0
1635 2 16.847532834171034 9.265429437363423 44.63293470613763 -1 1 -1
1343 2 8.931220088537746 8.198375037509457 42.12392612898737 1 0 0
3436 2 12.32300794053022 8.164120058894236 39.22808859292317 0 0 0
3476 2 11.588433368762121 14.916230519441196 39.54880921731541 -1 0 0
722 1 10.57675821240755 13.770113395359255 43.811464145799405 0 0 0
1241 2 10.02246219954063 10.406444479498354 37.76889491978711 0 0 -1
50 1 13.525639396040546 15.837119346470114 41.90694902159161 0 -1 -1
483 1 9.066925512882051 11.652507666768999 39.21807261487655 0 1 -1
350 1 13.34486333321343 13.835411580777585 43.817772286183015 0 -1 0
931 2 11.827895836722197 10.524585584114504 40.39849322829793 0 0 -1
4113 2 15.757264908385205 11.450813079168165 42.61036033901001 0 1 0
1461 2 11.345536058543589 8.223390029411602 44.09410057068278 0 -2 -2
3269 2 13.446834335578158 13.74390999918868 41.71888405518994 0 -1 -1
2635 2 15.681233506898478 15.003974821697254 39.24029729253092 1 -2 -1
699 1 15.241588575353944 12.470595899994235 44.51595405993506 0 1 0
1786 2 9.106563335499576 15.233176438982577 43.98197390815363 0 -2 0
1965 2 9.032262992565785 13.916708540231818 39.3860402282403 2 0 -1
4110 2 10.424713126557881 15.24633601104546 42.47445917596071 0 -2 0
2643 2 15.101143292931619 10.130560589542831 41.07883914806918 -1 -1 0
89 1 10.127809521211223 10.2353262103598 41.34787921216545 -1 1 -1
1341 2 12.378669008078077 9.351448347261261 43.408721474561254 -1 1 -1
517 1 10.154521778457482 9.83760517847332 44.60015116010846 0 1 -1
1153 2 12.93002392702057 15.128486656612619 38.59441476629868 0 0 0
4008 2 14.165004818213145 11.709034395046501 42.8549093384058 1 0 0
2305 2 12.634564590391202 9.88713449393823 41.716786300935496 1 1 0
1136 2 14.859762874383565 15.43792160691732 44.020005109737944 0 0 0
2869 2 11.062543758483733 11.319451727380637 38.89807051174855 0 -1 -1
4003 2 16.584778856918916 14.233680811924787 41.53444033651413 -1 3 -1
1253 2 16.850419496084214 10.686730223896697 39.871872536647246 1 0 -1
1122 2 12.080228245133549 14.564656861218033 42.43422707333996 2 0 -1
1239 2 16.9507296408069 13.732273647186855 44.413115359464285 0 2 -1
1950 2 10.513455085192083 13.731495991126355 39.99423612747026 0 2 0
2073 2 9.07255752963377 11.61500155781925 42.899441701457604 0 0 0
897 2 15.116792444288423 14.881072102515802 40.98376170220241 1 1 -1
428 1 13.466084160947227 11.798046642743564 40.77157814439663 0 1 0
3489 2 14.512668649780826 12.657511868189761 39.18570762053258 0 1 -1
31 1 15.488092952509799 9.086202732686603 38.45635484580918 0 3 0
2509 2 15.708702555341594 14.209151868875484 43.7677166738829 -2 0 0
830 1 11.738740839636618 11.297234508427385 42.96995279735552 0 -2 0
2426 2 11.907779383784513 12.751475558597148 41.139724876536334 -1 -1 0
461 1 25.053126858759104 10.969763495035773 41.25356361666565 -1 -1 0
1385 2 24.24021869707704 12.362332225237438 38.72383857078751 0 0 0
2442 2 25.673968137024772 8.567105438742928 40.77072141382404 0 1 0
1441 2 21.36074419815065 10.9715154308104 43.60131886752202 -2 0 -1
3077 2 18.365927041626485 9.74511490430535 41.20510864847009 -1 -1 0
545 1 19.590944938561947 11.7074334430978 38.0700318174335 0 0 0
532 1 21.733958582297443 11.69781915691658 41.06708449255222 -1 0 0
1427 2 17.55519070730045 8.921543191929686 38.88440889803713 0 1 -1
1411 2 20.379996964427466 13.880371494870232 39.05188454161645 0 -1 0
1497 2 19.68496614005471 13.42937215270501 42.92470644065949 0 1 0
3720 2 25.323766027932507 13.572360812191343 42.68633352967276 1 -1 0
45 1 18.721842851828885 11.732798310714834 41.4931552594824 0 -1 0
168 1 19.41153935572256 15.857459658829033 37.893164378955134 0 -1 0
3613 2 25.401814728234967 8.829893990615334 44.547787336680756 -1 0 -1
3509 2 20.127032903564412 9.711606824602859 43.07036245018339 1 1 0
2492 2 23.59180596679794 15.694094439327953 37.92418064363857 0 2 0
3028 2 18.3205930907117 12.452309536222067 43.368279247857544 0 -1 0
3508 2 21.10046963277568 13.605855949997679 44.30277131491632 -1 -1 0
2192 2 24.733430059835392 10.399662048761359 38.294304620697964 0 0 0
1675 2 22.66017979874811 10.261434650829647 44.77326466349129 0 -1 0
1956 2 21.664781089689882 9.623351565051365 42.3104914682841 1 -1 -1
1809 2 21.279911237937025 8.280764875411545 38.813802612224926 1 0 -1
3914 2 25.194229111040812 15.32166803305943 38.38801350449433 -1 0 0
3245 2 22.442981164910826 15.823962933711254 42.82784833233373 -1 0 -1
1127 2 18.573776047623458 13.29677110968863 38.847439541854506 0 -1 -1
3481 2 24.248859606525805 9.264724219177761 41.827606917009874 -1 -1 0
1018 2 23.57034885758123 12.01303958600056 41.50594582777835 0 -1 -1
1807 2 25.86809907426888 12.1879154204595 39.46814650929982 0 -2 0
90 1 21.609374332841146 8.86818209696292 43.9143011417737 0 1 0
2637 2 19.624659556255832 8.32447767516734 43.85458881356125 1 1 0
1218 2 24.456032281624505 13.8461264822313 44.14145379336986 0 -1 0
213 1 23.564161537424482 8.634034943864112 39.37149273562026 0 -1 -1
3570 2 19.67303775761675 15.94940941576135 41.02937604698677 -1 -1 -1
2801 2 23.228666387456993 13.231451479252689 40.28973297974158 0 0 0
2567 2 23.109984116647837 10.352839327976884 41.2382499781332 -1 1 -1
1996 2 19.621825662983735 14.92240487155816 42.38510401723794 0 1 -1
153 1 24.569066746749385 14.914291281039556 40.94587677322064 0 0 -1
1840 2 24.612456378609608 12.639967265531324 40.266910637730284 -1 0 0
4141 2 20.149756408199476 12.446495393766185 40.158384751927926 0 0 0
3962 2 17.968228995183033 15.369933511808167 41.42316602717244 -1 1 -1
2315 2 21.664474581269044 9.607281950025019 40.21304776362407 -1 0 -1
2693 2 21.621906735549118 13.525699684074409 39.89999417919857 0 0 -1
305 1 22.27704905387548 15.20302857957673 41.12695404135486 -1 -2 -1
989 2 24.62388790521523 11.125875096987233 44.35499327659961 0 -1 -1
1258 2 21.190152816319312 12.542066953802852 43.00725103576128 1 0 0
1432 2 20.092296919743518 9.669359855102304 41.416045282421734 -1 1 0
2512 2 22.497012081647362 13.194467176556222 42.29072023563215 1 0 0
1456 2 21.16838597749007 10.87615426156913 39.05360435526249 0 0 0
3548 2 25.457044911329497 10.141695007000372 43.28966238174268 0 1 0
2975 2 24.745325061941642 12.160038511566055 42.970888700973184 0 0 -1
218 1 22.95958225445399 12.398160686971401 44.401152085985 -1 -2 0
2653 2 19.487674579339657 15.996430943624679 44.11560436854495 0 0 0
524 1 19.621041669299927 8.927171952462917 39.59548253527289 0 -1 0
1042 2 22.479613657114516 14.437779667805467 43.8076686890082 0 0 -1
1757 2 20.784073737596692 15.54106830908559 39.81163765101674 -1 -1 -1
1736 2 25.595854640606742 8.627687382475823 37.63134396824784 -1 0 0
3253 2 25.94719160115381 15.144076897786503 43.52515565798553 -1 0 -1
2516 2 18.974144141046093 10.928579003766785 44.04540079457379 0 0 0
1957 2 33.610841839668836 13.574958501906126 37.93309170908334 -2 0 -1
137 1 33.385248201441726 8.42821118476652 43.01206077781511 0 -1 -1
103 1 31.017469890999894 14.92261273047978 43.076433428487604 -1 0 -1
1915 2 33.16501095243166 8.20578227736653 40.22110658489306 -1 0 0
139 1 28.98273829047581 13.989311671088133 43.65181966206077 0 -1 -1
3047 2 30.07796302013446 15.816115987636458 38.08157685561212 1 -1 0
1539 2 30.232660100544603 9.980058606870392 40.31147185210492 -2 -1 0
4169 2 27.52207266018319 11.373424354653846 37.696869692662645 0 -2 0
3312 2 26.995771228506243 11.770769636352568 40.423732558430466 1 2 -1
309 1 26.405912993984852 9.933605012726694 39.165650388078404 0 1 -1
3329 2 31.127887456043535 10.546673486570912 41.79293863928946 -1 -2 0
935 2 32.40541541446876 11.310491851603574 38.775796812313956 0 0 -1
2078 2 29.738451736786587 14.711667567934326 39.290792024382306 1 -2 -1
1393 2 32.75447492518644 14.320581214060404 44.4182045545831 -1 -1 -1
926 2 31.005021304996852 10.322683416253103 38.84899595308417 -1 -1 -1
1550 2 32.45432345549359 13.172259022623265 43.1662969905888 -1 1 -1
2573 2 32.283100959861045 12.934758159054752 38.66504793660985 -1 0 1
2578 2 32.52296607018535 9.421332318457695 38.56607996345759 0 -1 0
176 1 29.007621811029075 10.715764111510243 38.746798937572805 0 0 0
3731 2 26.96403005164175 14.806400988897213 38.52955143782388 0 -1 0
1733 2 34.102023312996025 10.28001065967152 44.07321913196798 -1 1 -1
3567 2 31.259062438276462 9.239756460866413 43.03501310351086 -1 1 0
3203 2 26.996480387299194 9.968843279526398 43.00780312862195 1 -1 -1
2327 2 33.753050236826724 13.17306591900511 41.6710846636237 0 -1 -1
3416 2 32.04140011178559 8.557422706658775 41.49033910999154 -1 -1 0
3998 2 27.410101422073257 14.633376205174788 40.23919922482128 -1 0 0
1811 2 33.00771908425919 12.233633700238846 40.47115071314742 0 -1 -1
1980 2 32.069856867702576 12.254684310276739 41.81992726176203 -2 -1 0
3153 2 27.877493696495836 8.266144812916536 43.14629744965518 0 1 -1
2609 2 30.14430170179705 10.353946181648137 43.21900203195189 1 -2 0
3297 2 28.324679759654696 9.879873605211658 40.715198879003076 0 1 0
1449 2 29.462636382070148 14.149993102833193 41.3189643527126 -1 -2 0
696 1 30.534606175544706 12.737025430890478 39.841230563767105 0 1 0
2789 2 29.634256562755766 12.92844394359609 37.65077663267649 0 1 -1
760 1 32.97793379213638 10.476089161262227 40.964867851561905 -1 0 0
2493 2 27.287295997313198 9.225314506228816 41.68910334730773 0 1 0
636 1 29.704734415338777 8.396322036540877 44.21875514915614 0 1 0
360 1 27.673348098251566 13.038973943225525 38.965271506629044 0 1 0
3712 2 33.9290279463724 10.564037471794808 37.8744395155774 -1 0 0
3690 2 28.908959088720884 8.573932868406825 39.628752245102945 -1 2 -1
2400 2 30.713917177877313 11.406758183994024 44.98760123435707 0 1 1
3152 2 31.162170427190098 9.760933357142415 44.731340995268816 -1 1 0
3722 2 34.316743084598954 8.782789743321691 41.43808771185697 -2 1 -1
3701 2 30.98280441146259 13.871093007869911 37.97456354865573 1 1 0
263 1 27.126353655998898 12.029771079719849 42.96472452469737 -1 0 -1
605 1 33.99273371904688 14.657389531791734 42.694092755246444 0 0 -1
3225 2 28.2453835211472 11.590733380042842 44.90071026829499 -1 -1 -1
1590 2 32.81069082562041 9.826017150828363 44.80108572059966 0 0 0
4065 2 27.858670701450293 13.170039436717328 41.18150649070137 0 -1 -1
1608 2 32.362556295891025 12.193589581732763 44.77184992438974 1 0 -1
1446 2 27.503102403307047 15.63680128975249 43.517838402525854 0 1 0
3496 2 34.735006807066696 10.25491671198809 42.33671583472438 0 0 0
210 1 29.341121326563158 11.62886289047069 41.77492443040106 -1 -2 0
946 2 30.70409940155459 13.177449812786472 42.10450266205192 1 -1 0
2671 2 29.16971084002165 15.682740298204196 40.739120238091175 -1 -1 -1
1841 2 28.460850593957325 10.669958913875798 43.47525620986571 1 -1 -2
1563 2 26.65933146762309 14.304265160948368 41.98248731257079 -2 0 -1
2940 2 29.27980539328297 15.768562679593082 42.89089428436659 0 0 0
1090 2 34.116428747163 13.572750528141059 39.8198354419083 0 0 0
1292 2 33.54399604135989 14.738172472555545 40.866251065403326 0 0 0
4083 2 26.322656767397145 16.054394194533206 39.55892694022789 -2 -1 0
3670 2 3.780878401931172 16.244232825536905 41.42593754205608 1 0 1
839 1 5.124503061152046 16.242403079359775 38.11100649532854 1 0 -1
937 2 6.177043527937676 21.61349745280956 41.70838054646586 -1 -1 -1
1585 2 5.032712161007518 22.71418283004698 41.25575326368195 0 2 0
866 2 5.549134188099746 18.629487552832295 42.720570734899376 0 -1 0
2514 2 7.508949800308735 18.207836885117487 40.032277201635615 0 0 -1
3840 2 3.873022948552904 22.09865839637152 39.98087609467367 0 0 0
1188 2 5.4715310681247145 20.609147921644023 40.38630299747 0 1 -1
2064 2 2.8390029662477274 20.548343520189185 37.83838074094871 0 -1 0
3924 2 5.18868435741922 21.538989199639097 43.12817806732168 -1 0 0
2379 2 7.192458347951417 17.407202416402818 38.75851410644823 0 -1 0
2719 2 6.326004329231354 21.15901405892832 38.868731805302275 -1 -1 0
3499 2 1.8145882460823997 22.242501855701413 37.88425612982701 1 0 0
2174 2 7.246534501725508 16.713464392598368 42.96106846357238 0 0 1
988 2 1.3145815222415038 20.161115053829086 38.31184934440778 -1 0 -1
3623 2 7.928729890396679 23.93605792293493 39.58469011661638 1 -1 0
3598 2 6.1132179080783065 22.86302969699493 42.62889943222778 2 0 0
898 2 1.8021955081268626 23.306274819562177 44.843599292340116 0 -1 0
4205 2 2.6460318952646 23.14234226186346 38.99537788831637 1 0 -1
3654 2 7.719166291805973 20.94079687100418 37.948915580829016 0 -1 0
2464 2 2.4562829844162857 21.989980489296286 40.44707123706665 0 0 0
3637 2 3.8085695170560157 19.01322550899065 42.438843010875544 0 0 -1
3584 2 5.741262054035104 18.0227783081393 39.71505185474908 1 -1 0
1337 2 3.040683617017981 16.254532197799428 38.18740169597139 0 0 0
3950 2 4.279432794176938 20.279869280642238 43.682948112510324 0 1 0
1828 2 1.4914782904407553 17.130502355269044 43.402624398171795 1 0 0
579 1 8.51519293199716 16.262860497973605 39.90882374373702 0 -1 -1
3893 2 8.773991794202223 18.07043787983013 38.37646509101094 -1 -1 0
2833 2 3.241152440537306 22.81233779336649 41.641229912162665 1 -1 0
2525 2 7.606518420617159 22.59811601643785 42.14520707678907 0 -1 -1
2758 2 0.8948451141207239 21.83450051331711 39.45112861409455 0 0 0
932 2 3.4744428930222635 23.042008439043244 44.67108946646288 1 -1 -1
1801 2 1.2863006658266838 19.9254174934006 41.4738780575378 2 -1 -1
2443 2 0.6697551464890554 20.978513113634683 42.7999046961128 -1 -1 -1
3970 2 1.173377786781887 17.763328402473824 44.83915316087827 1 -1 0
3390 2 7.492191760180627 22.640171768055822 38.54708805458796 0 0 -1
1796 2 1.0199417158723074 16.12418381834827 40.78480548751183 0 0 0
2680 2 8.28173969258009 19.97762461604374 43.11314144428354 -1 -2 0
4320 2 7.561460319422651 20.546415714491886 44.670663745532195 1 -1 -1
4196 2 7.586006170297744 18.838161259794255 42.268528521184166 0 1 1
2640 2 8.146993331328083 17.249646006254494 41.500180943625786 -1 0 1
1455 2 7.883183345992022 23.989597048906795 43.18110125971709 1 1 -1
282 1 6.5367843675550406 18.591728614082648 44.916244348056196 0 -1 -1
2876 2 4.435454341003965 23.292401980737495 42.981175100979414 1 0 0
1877 2 4.497064695659961 17.139311242767896 42.44780747975879 1 -2 -1
1613 2 8.239703287360381 19.668799029645477 39.13025060188893 0 0 -1
963 2 3.450640550490583 22.041850906035528 43.2686401058509 1 -1 -1
3697 2 1.8736149009032443 21.85741556888439 43.894987126276654 0 0 -1
2983 2 2.656579873403692 19.077162669649276 38.55531968620221 1 0 0
746 1 2.6592599824985887 19.71763688338158 44.639311904639754 0 1 0
420 1 8.07260254645557 20.87734234984228 41.007593741990306 1 -1 0
2507 2 8.917048429030205 23.225454616288538 44.90737254368273 -1 0 -1
1280 2 5.071396290305043 16.8855157273019 40.656428923855024 0 1 -1
1890 2 1.1881253605471127 21.934850559005945 41.63383763938845 0 1 -1
1382 2 5.886264656479445 17.204313187409213 43.73898889581638 1 0 -1
4287 2 1.2526045961953645 18.076447581284583 41.44415256645714 1 0 0
2802 2 2.72428286107671 17.85392988862798 42.33520963726134 1 -1 0
3663 2 3.8022146088837174 22.09213455330923 37.92415194915116 0 0 0
159 1 1.1392215551191747 17.52148869554162 39.32615756263291 0 0 -1
2823 2 4.980219732988487 18.868740954928086 41.051925448734664 0 1 -1
2487 2 5.24881466247977 20.516861440093294 44.91210642337138 -1 0 0
705 1 4.629428760707172 19.787860782748105 38.704573200431035 1 -1 -1
2321 2 8.427462497413313 21.904305020074347 43.58230054242968 0 1 -1
492 1 2.8654841809367433 18.974401208854616 40.76821128724606 0 1 0
1069 2 17.193449454915097 22.19049531449336 39.317596475151184 0 0 -1
4247 2 15.605987683675911 21.987059510649097 42.882000797847034 1 2 -2
521 1 17.37709768162006 18.887390218059764 41.185633734145 0 -1 -1
3748 2 10.33545108959658 16.670669181447728 41.36114183491216 0 1 0
2518 2 15.170048183616881 20.218236020293844 39.33793810933521 -1 0 0
3553 2 12.69596734000385 17.557029626406802 42.860867410809206 0 -1 0
3085 2 16.236322676970303 23.726876792545113 43.12006142199093 -1 -1 -2
665 1 13.343028756140795 22.12335042756272 39.46521662186209 0 1 0
3230 2 10.572787530044524 16.117989734919064 39.74424813495754 0 -2 0
1264 2 9.478929416721893 16.34199850397473 38.24316922813412 0 1 -1
2372 2 15.528915484633085 21.779503132713863 39.54683740951613 0 0 -1
2308 2 14.038253600824444 16.89339580029447 43.79737622225303 -1 1 0
2211 2 12.288609853243168 22.24079521787563 42.638116636838284 -1 -2 0
1606 2 17.39572707307407 21.252502268689895 43.78459453514026 1 -1 -2
2156 2 11.429632310658828 23.713083761900045 42.87710884453918 0 0 0
2343 2 9.94518369758397 19.23197030423887 38.549531787645904 0 0 0
4268 2 16.675550427849505 20.463330056568687 40.03308649255023 -1 -1 1
1976 2 9.957019381083729 18.42814487131284 43.72388710063294 0 0 0
1569 2 10.876959071414854 22.203643916492794 37.67556933228059 1 -2 0
1860 2 9.308506163241589 17.101231874358675 42.79918780099645 1 -1 -1
812 1 9.219629650429681 23.863470586252248 41.61007293695503 1 0 0
2677 2 9.558214151076939 20.852073504392592 42.422477313880094 1 -1 -1
500 1 11.94025590648856 20.560757923807394 41.84623066399126 0 -1 0
688 1 9.775369129325693 22.684498242924107 38.9839040060472 -1 -2 0
3724 2 15.41014768035515 18.765042503259288 44.29200107007285 -1 0 1
725 1 10.590276176557925 21.961756266580373 44.209377153511824 0 -2 -1
71 1 11.591530199988744 17.620240890091672 38.62875970240952 1 0 -1
471 1 16.28125069500552 18.738729362516658 38.913783467263755 0 1 -1
2642 2 16.91082542107655 18.75605078815829 43.42619119768472 0 -1 0
970 2 15.778724609366334 20.621772631284152 44.37511164162111 0 0 -1
4198 2 15.940754053385277 23.454863481863775 39.1459013515035 0 0 1
1114 2 15.824614589032327 16.800656405311415 38.90556003086179 1 -3 0
4081 2 13.783725654549734 19.2121659392619 41.60917553304451 0 0 0
4203 2 14.268686049502437 18.22450321151144 37.67830935048296 0 1 -1
2296 2 15.12930001063692 19.036168270780287 40.79568033137857 0 1 0
2060 2 13.58918008732619 23.43916416286114 41.13862317207749 0 1 0
1496 2 14.406684187049658 23.04021292694309 42.88232851050876 -1 1 0
953 2 13.141431675243723 16.330401180490668 39.86520497925804 1 0 0
345 1 11.813659142993655 18.16067769772208 40.97276201734281 1 -2 -1
2405 2 11.669506733900517 16.296110281418528 42.27868316489656 1 0 -1
3016 2 15.939478280733567 17.51809931065697 40.608401534155774 0 -1 0
3557 2 13.277282726831018 19.336412128346794 39.94466378498039 0 -1 -1
3258 2 11.6096014940543 20.32211328257413 44.667357113357724 0 -1 0
3491 2 15.30912413524699 18.323022967491404 42.34201984320761 1 0 -1
4234 2 12.763262314857617 21.7793632832361 44.258191321898835 0 0 -1
4318 2 11.483214656858445 18.5701236612893 43.77298576761178 1 -2 0
1783 2 15.007512002478771 22.38566612848865 41.011624387524066 0 0 -1
2056 2 13.764547006188192 20.17146166499512 38.472267596724905 -1 0 0
2939 2 10.828181282002541 22.5923848272798 41.45947002579505 0 1 0
3399 2 9.705566970559035 20.255874211626356 39.71945247206394 -1 -1 0
3198 2 10.671510736620657 19.962378141927864 43.387752081594634 0 -1 1
452 1 13.576435033682522 19.735490673167455 44.205339233123716 0 -1 0
819 1 11.657429323558066 20.260435776630388 39.02484289087255 -1 -1 0
1170 2 12.724613373849579 23.628437622574694 38.11456131140412 0 -1 0
2679 2 10.075406417834662 21.321777624954585 40.8174480840484 -1 0 -1
2342 2 14.763848058220159 16.485266810093137 40.3391213671165 -1 2 -1
2855 2 9.387103355200487 17.049488906482374 44.42521663723074 1 1 0
259 1 25.59369039141173 17.05907461006911 44.47388885613123 0 0 -1
2804 2 20.973380845666064 16.41432666597624 42.39054563231216 1 0 0
1420 2 19.60858284046369 23.23317668511382 39.003670117315274 -1 -1 0
911 2 23.580613079483577 17.19815482944965 39.93296948230056 -1 -1 0
3974 2 23.42797860963966 22.956838033370104 42.66422455432331 0 -1 0
2424 2 17.691510974643478 22.675053118503165 43.12484125569264 0 0 0
2159 2 18.285595440334927 19.96592210520879 42.83352026337818 0 -1 0
2155 2 25.15995974241407 21.238313069474785 42.5533972280845 1 1 0
2891 2 19.487706631784334 17.639384445683994 41.498954989462746 0 0 -1
632 1 19.579142580828037 17.459079356263665 39.49498496921569 0 0 0
980 2 24.909541024926437 16.928588369439687 39.011515118755035 0 -1 -1
4123 2 21.6167678407582 19.457585468947357 43.16642149630672 0 1 0
76 1 25.837965129816233 23.16929261613734 42.635701575723445 -1 -2 0
1169 2 26.1001375123227 21.310392895645244 41.30603497215965 0 -2 -1
831 1 20.690677497691052 19.425966103250566 40.76455919580973 0 0 -1
577 1 20.98678014543144 22.21939966122214 42.02280460792773 0 0 -1
3575 2 23.874720060567075 19.184302921117556 40.44622571999708 1 1 0
3775 2 18.547874609585865 18.108227799406016 42.86963201530017 0 2 -1
531 1 17.658718316358993 21.614677181899857 41.18472497078483 -1 0 0
3869 2 23.83879975164674 16.90020472760488 43.44708280409403 0 0 -1
4027 2 24.053950738284875 22.436854705514868 39.33598935432313 -1 -1 0
3819 2 17.94709078692625 16.565455012229258 43.520070710613275 -1 0 -1
3551 2 24.235434635899082 19.804262133624924 42.238730370223365 -1 -1 -1
4248 2 20.66004922051244 18.22270593711103 42.41517739846608 0 1 1
252 1 24.348839575959033 20.713759291121526 38.15179380313059 0 0 0
2924 2 18.95798431817834 22.914566320716297 41.888967616895016 0 1 -1
2416 2 18.030390225957646 17.026003617603315 40.8944076796074 0 -2 -1
3174 2 18.71654144770318 21.443701058285427 38.947076757468224 1 -2 1
4214 2 25.59238476856488 18.540238063607575 38.459608408244044 -1 1 0
3902 2 22.56946553866105 16.237370308390183 39.08351365293873 -1 0 0
3703 2 20.980767117293905 18.896273358287303 38.949021763219015 0 0 -1
3104 2 17.982470594072655 16.995459844420637 38.990539102109345 0 1 0
3219 2 19.734653791790578 21.939624002993 40.12441039761334 -1 -1 0
2403 2 21.173995114699864 16.997278323296236 38.49106869580827 0 -1 -1
3467 2 25.966423335836666 21.465516974835083 39.740756660247335 1 -2 -1
4237 2 23.191232560139937 18.808290431249247 43.56250563307297 0 -1 0
2795 2 19.860788056145047 19.852357873243832 42.761365288604466 1 0 0
1871 2 23.283818697487302 22.581574861712937 37.7228254538263 1 0 0
2484 2 22.768549024583738 18.728860005423222 39.679516145010396 0 -1 -1
2923 2 18.600250568133585 17.951079736464827 44.51509874085085 0 1 -1
4194 2 22.07991807152011 19.24621779751579 37.94861375615802 -1 -1 2
2638 2 21.227910696492113 22.99361691085008 40.13949157073965 -1 -1 0
3625 2 22.86810401762787 22.86063419291998 40.655057593952485 -1 -1 -1
3971 2 19.57952545988459 20.083793643143743 39.25387466738602 1 -1 0
3419 2 20.220891717706028 23.929493651655328 42.578096438178356 -1 1 -1
1483 2 24.31006181739215 17.91036193145795 42.33900831219291 0 1 -1
518 1 24.11588585411314 21.076741153900038 40.569874852895516 -1 -2 0
1562 2 18.985589299070647 20.40775551585208 37.597301054941035 -1 -1 -1
4171 2 26.100944558469042 19.04887964795995 44.27020628271737 -1 0 -1
3385 2 23.577262883592883 16.510656456602106 41.754756048935015 0 0 -1
3090 2 20.81098679464105 20.714545112265178 43.82821628096195 0 -1 0
1805 2 20.665468256811046 22.348705811950772 44.26310283195563 1 0 -1
4041 2 18.521785319226456 22.582306477808118 44.74702350662876 1 1 0
3849 2 26.06080808649265 18.211763539289997 42.82424277084357 1 -1 -1
1818 2 25.80887595707606 23.076563499526976 39.56456665814591 -1 0 0
138 1 23.09160653502145 21.25307773368317 43.21560279323448 -1 0 0
721 1 25.126367474588022 21.485770583284157 44.54115293335232 0 0 -1
3672 2 23.968551299868945 19.738127335720506 44.68434391681638 1 1 0
464 1 22.208575725563588 23.48117428477422 44.10850628388823 -1 0 -1
2018 2 26.359088981207147 17.656456011787753 39.842940628658624 0 0 -1
2831 2 34.123983612804196 23.0984334511192 39.725136832891884 0 0 0
2942 2 27.297030278294468 19.08288825988418 38.25994739184462 -1 -1 0
2919 2 32.821139377506526 16.322339677977006 41.72033891466338 -1 -1 -1
3430 2 32.3240054856458 23.444691539189876 37.6781166925247 -1 0 -1
2301 2 28.482658666173936 22.711407926640952 40.30017048414799 0 -2 -1
740 1 28.138437017458557 21.03235231835128 41.78336114022895 0 0 0
515 1 27.584926040855933 22.41403627743425 38.53161380343825 0 0 0
2860 2 33.616508749402186 19.581559337037227 44.96062010143905 -1 -1 0
1486 2 30.32997103843713 17.599315334697316 39.726298166557626 1 -1 -1
952 2 26.301114159007334 20.53961135165249 38.228528456895916 0 -2 0
3023 2 26.453343440633653 19.952633028554345 42.438562710911164 1 1 -1
3908 2 31.53304390590802 20.569114038118833 41.01334219636696 0 0 0
364 1 28.656468185803064 18.126870752845157 40.96964396738514 0 1 0
3455 2 32.84291683707289 22.47788615035958 38.89086672988171 0 -1 0
1242 2 29.799825570328068 18.12062264362371 44.75952412256631 -1 1 0
1060 2 26.74700140409397 18.65291069125206 41.417202104392096 -2 -2 0
678 1 28.06970049946184 20.328194096664838 44.126695033825065 -1 0 0
2175 2 32.36728345346725 16.166640636515154 44.85228503820933 -1 0 -1
1832 2 30.98454628761281 22.74398586725838 43.8848288565453 -1 1 0
1110 2 29.943697491840318 22.714468726153306 38.55292461923181 0 -1 -1
466 1 28.33142481547749 17.013682350509214 38.28837440873613 1 0 0
85 1 28.159406588885833 17.717515317301782 43.444798335218884 0 -1 -1
3921 2 28.479888529945075 20.294938322554778 38.188364616740984 1 0 -1
4164 2 30.347519814121792 17.46026612074799 38.13967388022726 0 0 0
1579 2 34.70856874469766 18.941492822099818 40.5781732042933 -1 0 -1
835 1 30.424635700679076 20.83328617745505 42.81664683882994 0 2 0
4098 2 29.72247601198742 20.999700261677518 39.18454024617662 0 -1 0
2553 2 33.85951141718533 19.993590887370694 39.40530513789826 -1 -2 -1
4135 2 33.28886782486744 17.477616682072203 38.46533497891957 -1 0 0
787 1 33.89769270400845 22.940888967149874 41.924190434115346 0 -1 0
3522 2 29.718579570637544 20.35009544176731 44.96462457193455 -1 -1 0
668 1 27.09189196899436 16.17085987099984 41.474083874217314 -1 1 0
800 1 31.79233974509206 20.858171601051197 44.73866623344921 -1 0 1
814 1 30.47445455423441 22.455021107543097 40.72458736119673 0 0 0
558 1 28.132553144449876 23.403643380318854 45.00827352728307 -1 -1 -1
3817 2 32.94949633359957 22.405897896180456 43.991827381940915 -1 -2 0
1321 2 29.4980262748427 21.970012829673138 44.4115856242213 -1 1 -1
3327 2 32.887166968025895 18.148583945312737 42.643516215653165 -2 1 -1
3193 2 28.265347918572324 22.678245700361224 43.338100745755696 0 0 -1
1800 2 28.585174963217877 23.472419222640283 41.62740450504105 0 -1 0
3735 2 32.0461752437718 22.823713360460438 42.38966322260128 -1 1 0
904 2 29.856013515918082 20.171307094903575 40.704637922713786 -1 -1 0
1534 2 29.194336654727433 19.38508103021517 42.30341143073501 0 -2 1
858 1 34.56216306215114 18.92543423617937 43.205887085656364 -1 -2 0
3316 2 33.4887542887913 20.89183269727034 43.498430979903596 0 1 -1
1701 2 30.95577203655896 18.751041736044115 40.7065279322181 0 -2 -1
1140 2 32.51989405617773 19.74011084672766 42.42257272839979 1 -2 0
3217 2 32.01948936148278 16.74118999414693 43.113579986440286 -1 -3 0
4078 2 32.29601410793427 20.97312953920011 39.79088492670941 0 0 1
4197 2 31.05676461890778 18.604963896911414 42.77704149773549 -1 -2 -1
2615 2 31.733282730622843 16.56915933216964 38.59280993140047 0 -1 0
1092 2 32.92628530327879 19.496314701792592 38.20160196150284 1 0 -1
1749 2 30.30353824553074 17.276963295326198 43.49888506857473 1 2 0
98 1 30.869843611291767 16.818147001085933 41.443482436047475 0 0 -1
1021 2 32.62353905251493 16.37032425590037 39.96423137332448 -2 1 -1
1033 2 33.783169114753335 16.71559679747061 43.68365126773072 -1 0 0

Velocities

3655 -6.238132460518391 2.7077296168082974 12.726347959844494
1288 -11.195020724908465 -17.668878915581086 6.21676048746695
2040 2.985550716340919 -6.463314482795097 -10.670547102189026
3423 10.845225077023123 -1.400034187670713 -6.1316318120117455
1500 0.8098579072611628 -9.617521904989703 15.474040032593525
4009 2.8805425279839567 -14.628754561317207 -13.002152723272102
1945 -16.158461216362113 -4.023027012784687 -8.700056556068688
1961 3.2612938444996904 -11.588784295845324 -1.3269049832170428
2724 12.3761231706167 -7.4563814083791025 13.706380198351686
331 -5.212776393937248 9.831744315441304 -0.21447388436268444
2916 -1.1953097745936463 -10.530608577672448 -16.420922575000752
3910 4.877110434405825 14.479011368073342 13.101822359447336
3115 2.7914935779579593 -10.122243779422368 2.1815996966579387
279 -2.479413378086133 0.5629581077827472 9.561248941414055
595 -0.6288151496753893 7.335019851647115 -2.069371919918545
4109 3.957864455148759 -14.520281183185652 21.816043964194147
1017 20.346720294036736 7.225626080471898 -1.2102958125347274
828 -0.0794966368594926 -5.939569754712126 8.477389447836755
2404 0.5068160957863134 6.417447567096081 -11.879773805605165
1293 5.872127773813509 -11.987208468030607 12.445997327442532
2630 -26.644024136650412 -4.253192076233438 -13.463973307572134
1161 5.61764552590884 2.8157902330442828 -0.8845272296181189
2300 2.083742919557312 -9.287292648112963 0.798796106784515
2895 11.603928700698837 2.0951134476491275 12.014756734902768
1615 9.398131866402503 -6.903202094589415 17.656522362262514
3812 22.482286111761727 -4.675397396803815 -1.4594576794329186
537 -2.1895343755850547 -2.1836382030221495 2.795018207287279
2095 -2.6132296514718445 -1.2117317596298667 -11.766596008653261
805 6.018523537744433 0.09156356237516114 1.3787915464136342
867 -7.737427215600094 -2.167382189312813 -5.896106367464017
1049 -8.735927682337913 7.543866415046608 -11.16291875053041
3182 6.90455214646903 -20.098165639157404 1.036744024491045
2245 -12.155889222174363 1.4536751588075982 -12.375055787975864
2808 -8.338094727477705 5.4804277009746905 1.1097396135861874
3766 2.039317821481156 7.308539786786925 11.347159821960691
2761 -10.611263956574684 12.050169627138914 -0.07717074761526799
277 3.515164951443451 -0.9983213459820545 3.9777313771270943
2106 4.68967805846971 -8.454815940074084 -11.286172386076286
600 -5.288832771365687 4.906900453446693 -1.5087037515256994
2885 -0.989757181594193 7.236347258091882 3.7065458375769285
1194 43.34351431325685 -16.747593875464144 -1.695698411083992
2243 12.515467949158582 -15.022895532269008 6.782554195880202
3721 28.958003699055205 -6.1713457416839 13.939544700146229
1728 7.820602389582897 -7.463873147535401 -15.959674005250397
1415 -5.4088795389204 19.61368158950393 -13.264495366785098
2309 -7.159467843649202 5.421326795754182 15.634512468118237
4297 -13.695152364900807 -1.4370281598893 -12.424842605099416
467 -0.9294168256432761 4.707892276141904 -4.373490597698615
1697 6.907697200825714 -33.34564810195895 22.555091472832263
1673 -1.9529514684101175 -8.700483643015758 -25.092954804290667
1012 8.661958903385825 -6.739546153103268 -1.5719240928445675
332 2.2627316263079496 -0.5504675746744737 -4.138217075070735
1992 14.322749232070471 -21.788021984847898 -0.17561169114342098
1738 -16.764125294413233 -5.66581602566407 17.577254403537722
770 9.891744389610173 -8.995271233894576 2.2030374631193967
3398 8.757905853604711 -18.381981608765578 -15.952120876892737
1925 8.972024876430707 -5.4842802776310515 -2.334309328157937
412 0.37219395709326947 -0.06340583299329997 -5.204301453323359
2661 -14.352347569964813 -18.422236881850406 2.7575457587752172
487 1.4799096588393834 5.924170724854098 -5.107971382212031
2118 0.15132819506761253 23.052331221225444 -6.895325890558055
964 -10.598672407001624 0.8568862861612496 13.946143462194206
576 -9.030444217497623 -9.13806320774853 -5.2565214576879224
3221 -2.628831629275491 5.613038503249946 7.253647639176061
311 -0.25991835002199243 0.44375668408107044 0.4953998640296022
3933 -0.6622856302458581 1.2493026231753528 8.913647483211765
1035 6.175156323173385 8.188394562616555 21.34695656305112
4152 -1.7809196268264322 4.130839150117383 -2.060620576971511
3820 -2.925630825117678 -12.481182932747457 -19.74793793348982
3530 10.527858018876678 8.980778860318559 8.47715704453043
1744 -2.330509974914079 -9.208603667149866 11.096975068209437
2067 7.100729874913777 -15.828040673731548 -23.52768344873427
1560 -4.92562216733866 -12.235622146670522 -16.58495575845267
2957 -1.2983527486963335 -0.1373642810031962 -0.18924276117544453
4063 4.900084505015811 -5.155109445929574 -13.103442691934811
3792 8.81813722111124 -4.620266633221978 -24.570243221046113
1438 -2.2942961035812823 7.491614964581396 -7.4259738672622015
1487 -9.737253347807654 -19.72725116555406 -27.476713652859193
4176 3.7045106847682097 -5.061880876830613 2.439997151432075
783 -3.8472769013218366 4.613271603175928 2.6035334216656714
3241 -6.836367776454537 2.0844179001483027 -17.025602870302187
261 -3.724339706617495 3.161598598609479 2.13372080789484
936 -4.286841884551105 -4.014774261032168 -14.621689680189933
3138 12.498861871253402 1.2900905928927915 -4.8699893200350175
4089 13.945177146393497 2.760191633484818 1.9782909805365547
2406 -0.6387590457043338 2.4294398002631663 0.14341459429337083
91 1.1515730601018004 6.015220156545296 7.933664682105522
4278 -8.524959938825832 4.975384917542734 -22.927424081386274
2701 -2.641802786550542 0.5671631407890945 21.59961561994759
2907 -2.4213953813628817 12.281768610824487 -11.662387844635104
916 -4.524115176993961 5.948331603933358 10.653070079747161
2449 16.518062365523924 -21.676246471754016 2.1033448932474634
1922 -15.835749089999386 -0.10720157739791727 6.1653441321730575
248 4.044712842087323 7.2606813510245125 11.00689675939419
5 2.322093986190792 -6.039566696193958 7.736140696888859
1879 -9.57768436826851 5.109015135767686 -16.588729672219944
3617 -11.123353161748545 -6.562433322354076 -11.971451697604511
457 -5.539088722281924 7.116628249389268 -5.299688215900399
87 1.78080125880408 -2.032068357382373 -7.787525201419338
4168 -18.40660150125017 6.025373507514482 -20.236033417971004
1361 39.30480036877698 -5.782980397340311 5.560870056948858
724 5.2571377307164004 0.784517840706268 0.04271554703712321
2150 1.050813443973184 1.7331772867329027 -15.031134615069485
3505 -0.802390001170953 2.0239796044869975 1.5914149938197248
1999 13.399398839619444 13.33236333326139 -13.75976287217911
1875 -28.1831727382976 -6.32297623060483 9.217034041972934
3532 19.780205503625734 3.128530303347532 -12.742280809486829
1324 4.197770941953703 0.970517371668662 9.485470378198967
214 -7.796191877423623 0.2612138712666805 -4.102266009057209
2463 -18.983388666727645 -0.46766955242727515 3.184002422908885
880 -12.439661139404969 -0.09523986799485915 -3.897283513401165
587 -10.425455058038654 -3.3466943447193818 6.913881894442297
1683 -7.6238289762678155 -18.062617795827208 5.69808628880536
3529 -1.163355594348939 17.791908315500557 -1.9605974085345999
3979 20.860797780994982 -6.055919970121829 -2.8312726623308144
4294 1.8090846151528546 26.90860126222095 5.992951436581204
3397 -15.167611836534137 -3.6698719262005026 19.30211391505424
1652 -1.4943957338668958 -10.675907374237884 2.6667209526412514
2703 -8.77987098720419 -4.287238827136382 3.029207883287777
4221 0.3880585565665671 9.996165078805863 5.945572482889926
4100 -1.3230641455764918 -28.971735574398586 -26.64267718924828
96 -6.207598267269023 1.448760508022059 0.19133758228978676
2332 11.20275549025711 0.3578394999522008 5.380145201113089
2628 -0.20561787479535762 2.8421001808160136 2.5964707437122776
1937 18.037625217988893 21.659013371170257 1.0674447309881472
730 1.0368457456519071 -5.6690518654435875 -7.44505827450159
1053 6.036342838927933 -11.170738891575718 0.28872645895021404
546 2.053750713513443 -3.0711616613411543 -1.9479997349374767
1377 5.172788768640354 9.372121439387485 -5.926673497384364
990 -38.66820254314743 3.7212588690691852 13.067499200622901
3157 -5.3905204413775945 0.7599039804591643 -1.7187424272993428
1119 16.33966591298605 -9.393466478348234 -1.0160017921328361
890 21.14155227722157 1.7996186982308737 -12.975585383614085
3191 5.434514236047411 3.2776310196047067 -7.332476900569199
3007 14.487458701772587 -2.9142784790081437 -15.029397187291883
67 -3.4617940388776582 -3.631040652254163 5.608483185000608
2437 6.138340391022647 3.9081874934472074 -0.48841258823375455
837 4.604114489295051 6.581315706767607 -4.223752923205719
1788 2.782641659765654 23.83177955319452 -17.345350937814143
4157 6.664768289843759 -8.647041061519618 -11.426256457365712
1824 4.432041215911792 -6.587817890746202 -8.919574134678601
427 -0.8018333653450209 -5.596186119929064 -0.38557721151205954
3771 0.19601738978826241 3.375945832547838 -22.676734843026626
2839 -8.069250389482168 -1.273557707409442 2.8323430688510998
4142 -6.363032709443418 -2.488780909034707 -1.9198523065129693
1798 -19.364532207409265 3.558011334876332 -4.701475684265293
1279 10.735318432263716 -8.636856218507612 -12.876641482244338
445 3.025949796358726 2.4450568437621913 -0.2594565447796063
1373 0.473454579594243 -17.083033473493703 -2.2906810368318
2007 17.31640187027486 -2.9665909236255477 20.735434995987163
3733 0.07938955200415734 3.857479360733803 -7.16019328546945
2971 -14.8522125262479 -2.757091349247479 5.078537389600119
2304 -8.806150903131456 -10.06974160919152 -16.06761033020913
86 -8.17379582959141 -5.9671860863586765 5.477921998860054
3137 -4.483547818035327 7.072032501655352 -6.2813189211211276
2686 -2.544764210664161 16.19834550412217 5.578691056349434
3274 -6.632129668275959 -14.453585301063262 8.378359286606774
1770 -11.678733610770813 -8.260653144749227 -3.3399282900318874
2259 -0.308441321662452 2.96391489106295 5.004427585256811
1861 18.029201542461024 -5.676125148479881 13.936752992581363
2613 -0.8837647667465343 -7.142013232619133 -20.65178774056361
2465 2.3091981303490265 -12.8586912125013 24.723430311764254
2545 -8.268283714494654 -2.5147660562847154 0.47950832798169407
9 2.9302854110015604 -1.1716387693085217 4.4541537078804865
637 1.0874347662762507 4.148105290741638 -7.055919121513467
1210 2.666328172877555 -2.7021708277643004 2.1865764656800795
2774 6.064331279404116 9.58865095123258 -9.063647933240164
941 14.658048985744324 12.614756422594125 -2.519221349027477
2023 6.985462867429115 6.0461890039206 -6.667616339670409
3707 -16.657758627079534 2.820550580082913 -2.4233851306163294
3616 6.9773552166540265 0.5985938500656012 -13.604412712650115
3604 -0.03507024364695859 -8.12001927019411 -5.282659115353979
2069 -8.750193332398172 -12.595775467430077 -17.670921530690816
2694 1.9908796870702796 1.6429960093883897 -10.064891088828253
1083 -5.142004910146126 -15.162142361890545 12.896291589088449
2346 -24.669699731819694 -11.274672243530851 -14.30518217812736
765 -4.152853400491385 -0.3451955395609598 -4.0233150930326556
1074 8.853855808119878 6.513692764044286 11.940937137010534
3737 -5.315919178915292 -16.32138000817092 -0.11043093561805988
160 0.6031776151045437 -2.672181602693586 -1.186869815144327
3852 -10.97727748941378 -1.874291625499091 9.586220550029859
290 0.7176207080714806 -5.443560382913295 -3.345775344585214
481 5.902974562433216 -2.350952763360892 2.1960638204795107
769 12.578530874164265 -1.9239233170879928 -1.4927775876715623
2912 -8.550614469241022 10.483302092793453 21.021020806432116
1911 7.494579990057699 11.334568011256243 20.599004696123128
2356 13.290739879108939 4.7491185116094705 7.793578933543646
2896 -10.580062289335126 27.266470893680495 2.8130542203921967
3700 9.35402800402385 21.888897331054782 -5.683983122434126
2137 9.633566295888185 -7.1209111515715495 18.450901956546122
631 5.684157427634249 2.0661391930725395 -8.145759723010299
2870 -24.64925574909286 0.8460089862764177 -7.961684910112796
573 0.088295590249907 6.171030874127525 -3.145173102987601
1200 -8.690937109842473 4.461359851061036 -0.38287380281429834
1372 8.706880165477838 -9.4108131059058 4.416327199623154
2250 8.279929545078563 13.777102022086472 11.017520022779967
2310 3.5357483714901745 -2.029135173246768 -12.57661342603826
2233 29.088742484122466 -4.672956003366956 -11.945062874802378
370 0.6479954644886979 -3.15862089412418 5.736094085570304
3969 18.324665577678008 9.258781565877468 -18.194536379601555
3774 1.8487261164559488 5.455764630757786 -6.493109787570601
2874 6.90990154963854 -7.357629201193176 -1.2711543751592926
1864 5.507261177222195 -19.855541594078158 -14.480999173831732
3456 -9.164998615431317 21.635309021150196 -20.964461938981845
3660 6.730666163094695 -1.066688216562051 -7.486453513017101
3361 -8.116646575886142 -3.1100320913450497 1.1314032454538403
3713 5.424003957085158 4.673502668318956 16.635264262045332
2888 -10.499817010709778 5.604940593269639 -2.348282268061364
2469 -1.7781941414965012 11.920320166895074 -5.948810117175836
976 -7.393039157294888 -7.134612322215527 -5.8492793851550715
3500 6.927159277515816 23.408803371171356 12.668550141351224
1846 26.41077926765542 1.5472181344343094 4.960982642477363
2828 3.0182279413062663 -9.713693335292108 -6.9891775617936185
1516 -27.873508011827123 -1.2879136157265687 -23.326446194968675
2695 -14.509486632250654 -5.448064705757381 11.0369059388419
1555 -16.57167906758628 -11.559423881817246 6.456561523421962
2132 -10.952257076258922 16.60328857725443 -9.14444425332696
2330 5.636824336715624 9.771559014802696 33.37395545042907
682 -1.1069190504433695 -4.121914826360779 -4.6342692084509345
1527 -0.6504428389976145 -24.234523048854193 -3.51141328632354
1924 -6.67930818147239 8.730610798144527 10.06684166045619
3825 -23.005593293880395 1.3495707861069361 -6.274594709704353
3410 13.213890952169754 1.1556660248460218 -14.204653735466618
2325 -18.370049332295935 5.78918733208526 21.2982750704637
3565 -9.50458814976034 4.509205823793256 19.361522076361556
1014 -24.867689276075996 -13.023098812358928 -6.799043247951428
2100 -16.711946762711758 -4.339393528738392 4.545980929748642
2109 -0.05919114185988421 -9.968965241758578 19.88637846601563
1030 4.295846331129344 -13.592066935244716 1.8169278079249085
3097 -4.339927710990007 -15.270746571006862 15.151662069367983
2772 -22.563292884978775 -19.295283973744766 -4.367714151671261
1668 23.55970240721206 -24.746838910110068 9.635571593337835
3006 -27.104033534570426 3.618549570123145 24.344664286917137
2169 1.8497720769458268 19.34332645700674 -8.410334476288954
1412 21.171772987476533 0.41982174351241125 13.241914334623969
1501 7.082275415819755 -20.88279669587921 6.6321867888222075
2223 3.072326780237139 -0.15733295062124641 -3.820661975496146
1163 -11.147820041645907 4.767235691150012 5.662754371613278
1304 8.680834525886318 5.224095540045237 11.642791890019227
1031 -10.745059654342068 -5.254521976477324 -2.2152456896803927
1933 -1.6909609090932674 -12.045012125432848 -1.191440358572164
3070 -7.5339713134226844 0.5291453919795318 4.690870488873612
1779 4.263181638568594 16.954434562969972 11.282330750827073
3420 10.50619861530236 6.302831746202877 27.279278384212862
3639 7.924701121395478 12.277599294930548 -3.1768965189160996
747 6.777227853860624 6.464285303328281 5.1430400793598245
111 -6.124459425709669 1.7888518731175032 -10.77360538967516
182 -3.7915183475161314 5.515095677914681 2.4345837773068744
2862 3.6532268310310134 -7.857523374059363 -20.671246891489258
3492 19.15823675305503 16.272016514263882 17.77288615327525
323 -3.162416760328409 -14.553679071591686 -1.5570261875426108
1617 -22.316456306508986 -25.611807962310277 17.274080100111686
223 -2.685719665597046 7.790891593550842 1.9175451368516172
2581 -2.5353398693460605 20.39022746176113 16.385866075044873
1445 -5.269414841822694 -19.209901489105892 -4.840147620647781
506 -0.6723017080211322 10.847120157542772 -9.47187872464164
3702 4.155327551193137 4.568652656005974 -0.6391219440973551
36 -1.8012440644664867 -2.7443308567977804 8.002999457867093
2460 -9.267706270542451 -1.5000100584140759 -11.685067666630344
1504 15.69094756283017 -10.433089684521205 28.516267208850564
376 -3.549294601022286 4.659338620250887 -3.693627765599918
3055 8.857749939380694 6.249517506437585 -22.370665353621934
3384 -18.823610631236697 -4.529548274938694 0.8148716585389777
662 0.964678849415303 -6.479592900385217 -1.820019752077807
56 -1.0974039143748728 -3.7061342123587044 4.769569789042082
1739 -17.187062069390407 10.031865068630655 0.4230193631387233
460 -2.7737750537950205 2.4671953370295205 -6.235426333105921
3209 10.821392410937278 20.288127937779112 7.44709691162206
1700 -2.683662960825698 4.718981042123189 -17.869767699700645
703 4.238983753593707 13.006240213194847 -4.532139516473915
4285 -13.101063576958259 -5.106012381288233 -24.102787429085634
3371 11.79134710141427 0.24782761857289465 17.837717364983348
18 -3.4861380366459658 -1.2836492451113952 2.2798175374639675
1626 8.836898789480513 5.222263471704186 -2.994773012279124
4192 -6.965729543107457 20.389808628039958 -7.997799829405551
2096 9.34013184518238 -6.443729895009918 -12.382689605372631
1227 9.093992716862157 -6.110492130229068 -18.614705458013745
2510 7.8737984233605625 3.811791994062049 1.0589078451516591
1553 24.254121413156394 4.148488155186286 -0.22429862195099615
3370 -0.20801802878956926 -8.14765396929854 9.110938045922312
3531 16.404365782386414 17.309794955705488 -29.009785329964988
3627 -3.198837394246341 29.805093018190885 -10.355515178805307
1472 -9.239380028747872 4.0111692960671546 -1.4215364207644865
4020 -10.077188204349445 -12.161511528640027 17.388526353415447
3534 -3.363649437819688 -14.479537356801172 17.801950221854906
2809 -9.759108488566682 -10.498775293516045 3.0327203640890157
4048 -0.5067060327072648 22.211527871695225 -1.5597043547957283
4242 -19.475175334740566 -7.9742402748592545 0.06269427552702311
2208 -14.20829458566791 11.64962508324637 -4.731443870184834
3886 -15.443022713430409 11.320949411252819 -20.018259835430946
3001 11.183028011495688 -0.30466633380626723 1.8986629391567063
2648 -9.930721602161011 21.4013016766095 -17.60261145760073
1629 7.293490443940045 -6.262679181436147 -0.31300623503050906
3559 -1.683348916649191 16.192611886928773 -8.407966026215478
1853 -14.667230458778208 3.889237287592898 16.332408828519963
2577 -4.611213392039265 19.97285336573412 -13.863927256757922
1435 -5.744087739274831 25.592615195099693 -4.182561125858577
1967 -13.219782901109001 -4.696891690382504 14.792912519099527
1336 -31.776694292940345 14.566227331140345 9.270489858080996
3101 5.955112713631645 -9.75158126098922 17.458768995982794
206 -0.9172481147658604 -1.4017745358161926 0.17170538619085607
3814 12.168551413504927 9.106528655355863 5.924568909798185
4310 -17.55055613570577 -8.196394848769707 -3.7564821232440875
3126 5.041993542564228 -11.576408687908762 -2.2831454137844087
3212 -8.263328663888336 6.503572248768408 2.3762284639921436
1303 2.914554250996973 -6.309462704165216 -8.72027542785597
1531 -11.013000393639102 -2.4085578380473485 1.7977799460187391
2000 8.480251119048196 17.59387907282502 4.4619992474039
4153 4.309483344138802 3.765607872795175 -26.416823127455864
3264 0.041908140957940904 -16.63097632665752 -1.310952887711635
3408 6.581549818433718 -3.2884132905166417 4.199660413445584
2270 0.20264936963295108 -8.651065595438784 19.71915298153898
3359 6.974873975965289 7.880152350541707 -3.682088321676577
735 0.6375612277008692 -1.370640517062534 1.3289007687820347
2238 4.5310338952974165 8.924417968741352 -7.0346517494823155
2517 -7.747326739470877 2.4443859877450556 10.75060275775885
2762 29.453522268096798 5.06962445102971 -5.257012721392834
3504 -1.4568137496375873 3.724733905884561 -11.855504157375393
1671 0.31597729649395523 10.038158376951849 -11.895130373885282
959 1.8905613404489152 -21.877410028432056 21.693699046241907
2889 -15.62965386105328 5.220144562309713 21.167999106348837
4273 -5.16124460888698 1.51690868324154 5.526020408164312
845 1.2849695227797577 7.001985813008885 9.142270929175487
2080 6.196938751155139 -2.227213535824247 -7.132962888125567
14 -7.650094960042412 -1.4552784189552839 -2.0516237278436704
1891 -8.678693773208723 -7.7910827596888685 5.390901226961751
3093 6.382310217326543 -3.446951417172799 14.237104783456468
3411 7.007784900375239 8.267079608263955 -5.247223536443111
2925 5.684114084571884 2.5424894620050993 -27.367453344921426
458 7.935585199389042 0.35431685640515703 1.8634184599885806
4227 -4.725014453528953 16.06879860799697 -12.616371052811907
3426 -6.880201920406842 7.866079808396202 -11.172140571895932
578 -1.3411854960609086 -6.328285016998936 -2.4851399183955913
33 -6.798241546122744 0.6030366803483965 6.547171186784771
1619 18.44691315303905 -5.051553342476082 11.41049357657502
3527 4.705890401303858 -10.088712338815366 -12.282753164717631
4069 -4.800031700495534 -2.8634071547408255 -2.06648655983392
3228 -15.642917526727674 -11.171667982729213 -3.6890111973781092
527 -5.893885135194208 1.3891385666624598 1.5693159922198703
3985 5.597400500099968 -7.657861064645192 -1.5738477657379577
3273 24.322121784814996 -3.9025756771778806 -2.012289039850796
2524 12.301877119391033 -22.410497706237418 -22.828303817403185
1541 -7.622719826395028 -3.4159264111778502 -6.901384662623605
146 9.025940930965458 4.072704603127324 5.762968014066432
3069 13.846588488755144 -31.394324378943093 -12.91392686918708
2231 -1.8828225743424718 -10.743772608806115 -15.783408513887839
1869 2.9794200754475693 -7.863762062698277 2.537055269944876
1642 3.7415021485648583 -1.0944896954519654 -16.671304374768734
513 -3.8999253638942766 0.6208211408988122 2.413034845658923
821 -4.982676010390711 4.794481717236682 -3.0443504392240706
2530 -9.769395727341175 7.7200574850038475 5.240325488178809
1440 -23.319905401065597 -4.569400771805313 -6.347130933735549
2319 8.972444100057844 3.47413181701161 5.855377908555889
3929 -3.6854594566362624 -13.520647317990075 -13.854019249998816
3061 -11.864430545152773 -18.983540479103695 8.004876852123422
1023 23.936268100154802 -3.275125323350836 -5.104841480572351
803 2.273821390230426 6.95739126353635 -0.7850212956250942
486 -4.962043982592438 6.816392929947737 -7.573169632498825
3757 5.115204428952092 -2.980403964915434 -10.679982491218592
3352 -7.194889407401114 15.563568797095467 16.917725204396667
3648 1.9668331362929266 5.7450851793553515 0.11194542311099658
1876 -9.13260672040476 -3.071924032025538 4.107748787059621
3877 -13.995182162909481 -16.627452172355877 4.011324113122332
198 3.346938262083029 4.200192211375516 -2.6062276887663143
1793 14.609262596998871 10.042650029787685 9.887347619145112
742 -6.654331005063408 3.7955136760886368 -9.697769778620982
2123 5.22383733109424 7.823485635664481 -23.053411012076207
4032 -9.10932551216207 7.988675167321509 11.539703686077157
1050 23.94756479461793 -21.170218891461367 -13.609780453347152
192 -1.9189948771104999 -2.762552744785382 17.86629518070228
2144 10.570588812088225 -1.9744326108243118 -2.038734307707602
3024 13.53355225050603 -12.19412718586141 -4.264842608187048
4185 16.74738673807823 -7.911148633739765 -0.7397298480802171
1598 6.597695689030859 23.378305804541938 11.9753763419193
2070 1.623390351759782 -6.436296654977623 -10.160245046647946
1034 21.85127296941742 2.085250588894802 5.451770940879464
1359 19.327816469978234 23.59591918005018 -27.081113952684642
3229 -19.872363459936246 7.494055374426839 -6.913163998768326
2534 -6.098842892906585 -3.3650214240674674 -2.763940375248451
624 -2.531477467256013 -13.256132626479436 -5.023619934250977
472 -2.2797913873976685 4.403546570091646 -8.148310158397624
2226 -0.9990153959295424 -16.531719738290914 -26.53758128706388
2826 -1.0499441104787106 -1.144581689372013 -21.53594737359676
1190 -2.746744985947548 -12.931122450012493 10.479012360859544
1607 -8.45853564410018 -1.3128391731035791 -23.589071819277567
3925 -1.5452279269488918 0.9276354286166973 12.33358100923723
1192 8.27562548896447 -9.15430015063719 -17.014929558391895
1340 5.904487542629449 11.702656628935907 -7.864505117530478
156 1.7610795833342512 -2.9572527946601332 -6.130185708761782
2792 -13.528769350285172 9.16135395167532 -5.409159422874676
1597 10.663299857580327 4.80389707910547 -0.5288267307242273
1567 -12.105711096168976 -8.527420700940914 5.134841651808483
1507 3.47674545417069 -11.32471864241971 2.1182847967478344
1414 2.24115521976438 11.056360904359888 0.8273618639914094
909 0.8137818665159906 1.0087625894201597 3.6117200782680716
1269 5.5218846882792105 -15.057752006903351 -8.643306789043056
967 5.088238302478864 1.1166174723024476 -5.696406120546223
2036 0.5053095038165968 13.628728330556696 9.89448587925476
175 1.9064648202970838 10.779539769670858 -0.4897196533787098
2829 -9.50871988555153 -19.56084718795908 -8.137207892371416
3046 -8.332472520842996 1.9911648034223142 -15.069698699419241
3418 21.89629305931785 -12.756331790920036 16.917439036667158
1932 2.1982414244526294 -15.298711107357025 -12.525371787388396
1471 -11.937580504432166 13.049730239555872 -9.920492874825628
80 -13.219080350485351 0.6409616300936962 -0.03922434188598281
3544 6.0713027002064655 -17.693644675922958 -14.299494459948965
1664 -9.43284696098572 4.750846504224886 10.789860987148431
2195 4.47695081935348 3.7871714479647585 21.219852121217464
238 -7.309807953548138 4.1241546368493704 4.506231900493979
3342 -1.0714293440820086 10.137061724416673 -1.066268424392462
877 -15.771152634121913 -7.549831174919959 -6.290284032498422
3787 -11.170822655438686 20.952555940088022 7.56827257068874
442 7.027697941628036 -1.7640665627701424 -0.5462011674742672
82 5.812841154169008 6.98531750029751 1.105228435472862
1397 4.259957273990446 -9.371727320651773 18.167876089382396
2361 -1.5948842210210321 -18.46277837483565 24.390505495692192
4052 5.303527451466563 -7.740259183314297 12.220824520566717
2062 -10.396283259428444 -15.858213847794088 -10.746659489865525
446 3.49868139778617 8.043111205143127 -2.8175012110636866
2820 10.246899258333976 -0.433060707926287 7.228062659952421
3232 0.805511830867459 -18.297606248854372 0.2693341452179236
1751 5.276766210541779 10.527643895172638 -5.390503889418241
543 2.3599545256008 3.3689728043684113 7.302055797102883
2993 11.43335976747908 -4.594356920489617 1.194517161858784
2285 -0.22507965674416963 -3.410569219350368 9.271674305051103
1726 5.817377600245211 5.005589118919935 -2.62277638523967
3525 -24.46306673206747 24.01237193724205 2.5836308117312057
2539 -15.478325163060013 -19.103011147464766 -29.30109160751357
3270 -6.974269396832726 7.547141781130523 -16.125627413914742
3750 -7.4722441467006195 -17.09978481502265 -8.233044349126558
1688 -19.012145982467228 10.258494544542677 -4.005107733217285
2082 -16.473800741106512 -15.22303938221936 -6.374909456691944
326 -2.127927642618309 2.1781855867338487 3.5808205762197964
2133 -3.501707248480842 18.426390780638645 7.657611706567895
1734 -7.89985398461984 19.338374928731668 0.09103514338038764
2009 -6.651537276799072 -3.1010155715605503 11.401208091417901
281 -1.2155701261193164 4.432805400332638 -1.5675443710111228
3053 -18.0075303673782 21.11763841885496 11.487209417495217
565 7.999885926031718 1.5551251867726714 -4.892033177709547
3874 -2.5528903217723924 4.198278209197204 -4.921481279452753
1762 -12.996408866926053 9.136482298546323 7.879639666211098
847 -10.816649500626507 -5.591921373396305 -2.658401617053394
4005 6.6402759559217905 -13.019625471650311 4.714366337995145
673 5.829872331651107 2.6690841979867352 -4.594689648493184
3563 -4.448507830078681 -5.789788170568205 11.340574878273925
2803 -1.9214290381688761 -10.786406105176813 -6.0304039933368445
1232 -8.536047411206406 -5.735703348528013 -19.336044293277396
1244 14.847880611024003 -11.330633251881533 -0.6359123222262025
3208 24.5260098509495 -4.571466849326282 -0.31163093392588653
4143 18.656054245945136 8.989622991421758 -12.895440332004663
556 -4.022609569601837 -10.885467307381042 -2.019476634460883
291 -2.1757553946078785 -2.8169875826713078 -6.797188185894548
4201 2.1639980048658973 26.57880177695814 -10.989537373692817
715 -1.4136704809036837 7.776289347612148 -3.2159740655260682
2782 3.2770426346494297 4.491431345977133 -2.591080022812048
900 12.746877889935522 11.874182488496231 9.085434185626156
1771 -11.886243753650625 -7.785834592674333 2.357232135056425
2742 14.1645623630067 11.925302068993714 -12.570749336432911
2767 -27.814397379961918 -17.506979867828132 6.889363095030921
2995 -20.491308406895207 40.3081611611476 20.97396248025163
3788 14.063951254293427 14.21180611642108 -17.136051705523045
1223 -33.92319403331497 -4.009054606646511 -12.96259774773962
1182 18.021551288553404 -4.392026494873377 2.6594329995326405
1095 -17.906196342527643 13.37425597198788 -12.904893849134531
1904 40.09681339792667 3.706257460764848 12.40808782524128
3305 32.96625440491226 17.166773502337765 18.7548318605924
2162 13.445952824635008 8.174244547450682 15.272175364355878
3730 -1.911223559257303 -5.154339870229911 8.642754341692136
773 4.365211580201666 1.3768237300141164 -1.475521006824447
2799 -18.71470535473589 -1.5239091564815717 13.100196161254653
3059 -3.8280809509058624 0.9443763720363854 -2.7232936711570326
3200 17.61092276528061 -3.3780142722660127 -1.969334531070549
1214 -1.155426186415262 4.968843301902754 3.8033398921388843
1878 11.119603450254184 -1.1707101355255802 15.083224050534247
2994 28.406750311884558 -10.35776580741766 5.537117362948832
1691 8.627121365374242 -2.807900440900379 6.245690227423118
1677 -10.074067362559052 -0.03686472568392322 7.813473160355788
750 -6.73216602002201 6.265456650828436 -2.6594621414825914
409 -2.7437224959158404 -2.3186848233836717 6.358596971882694
11 -5.19393822573006 1.9084277948762336 5.111854014770243
3638 5.761576129140784 12.593138530079479 -0.5740069359965546
1580 9.946031692945729 3.546711497026539 -17.137240934823723
3376 -1.9731016028921182 -11.901119179382091 -7.150727005975878
3602 -2.2642836579807 14.81150997746535 -20.61215500072474
1703 6.634793196953407 9.172551193196592 -14.661661139868738
418 1.671907580855408 6.163715085922973 -5.806429012760307
2450 8.087401165277575 -10.54752268601664 -10.377885231304436
1759 4.858192629141743 -6.896446735844072 0.02729076467924211
3088 -3.802660748703018 18.906707365052338 -13.784317087753436
1187 -11.779002078386393 -14.137624170206367 1.528758749793469
1262 -21.73519667618774 -8.335421088558723 -13.553114497402374
4311 20.71666754395134 -5.9658831758771615 10.678532682394865
3462 20.075651622278322 -5.764553015489804 2.5879519077548916
1088 -4.825871571970284 -6.522258346410858 12.440893813987884
2004 -7.278466477370806 7.373309023560372 5.097928604019734
1040 13.3215888791033 27.65413292376654 1.4672175692178284
3682 11.220699772848498 -3.88647227067165 -16.988637404399196
1335 -3.1350519283395446 -1.9594126656948674 -1.7197346212655489
4112 -2.325637430372835 -7.481573194990117 7.9066395958105264
2425 -4.570199338567132 0.12389352674436423 -14.47426404506845
1149 16.680748962099877 -2.5233130014305294 -3.163983370033164
3992 -14.673390694554872 -3.9878397384638933 9.970359236819988
2388 3.558996347643416 15.862655720323797 -1.8771567836077214
1070 -4.234840275263021 -12.340343836606909 -1.4610948954825143
3071 12.755395411881103 0.12737201158899897 -9.842414770259504
1644 27.7692674572318 -8.320980117591004 -4.225681239596765
4019 9.463045637237606 8.986671266452676 -14.676622327722525
115 -7.504634480498721 2.7534166093960892 6.576228421675421
907 -1.5148036573747041 -1.08074653733832 -0.7503962611806193
3923 17.553022522703937 -5.577963939401227 -8.505970073710978
3536 -4.741704856231052 -1.1383499489743925 7.516177322308491
3162 5.914012547046653 -14.509176101215617 8.132492411019193
3362 -10.285003238308017 4.48927605305227 -13.30956200921684
1939 23.174730685666773 11.292114459126504 -11.723645208562184
3110 20.53455956335817 -22.22476205180856 12.911998067914919
2999 5.335942659406986 4.115016542283351 -10.265397389282688
1927 -1.565859168868876 -0.5880789103988046 3.8318658399035317
3275 5.6526657573089025 6.925440749894594 -12.19932229011608
1462 4.918327530618752 9.472136834872327 -7.173390376411135
3769 -6.141548202628844 8.810366304788907 8.263103875827474
225 4.770626447861731 -1.6817855487198454 -1.533217639308164
4279 -3.189367821767731 16.422040258220104 3.709112013520161
3490 -16.049720412704943 8.508894032763129 8.475329004327277
378 1.6495102064427067 -7.33535357900268 15.013086032705925
300 -1.9344132807289356 2.905684163659552 2.9737262969406872
999 11.253837913967413 -0.21849949627058812 -0.9263474489993561
3348 -27.632662716151295 -4.3574640544812295 -1.1278970685368648
790 -7.015192931335316 1.8151906835731317 8.25474447275201
3828 11.599368428207454 11.408223742336343 -13.169121041928689
1000 -8.837256223278784 -12.790946147437575 -10.580384290932612
181 1.1750809150103734 6.429153776389758 -0.7159936319313684
654 -1.6227868900596882 2.5310783838533557 -8.221889284261545
3799 17.241040136144946 -19.40384537915425 29.89875770938719
1029 -27.7241886296113 -6.270171926352352 1.9953735598918534
338 -1.3795523068224904 4.203449429159956 0.287540200871355
313 4.54254159599907 -5.036448628846452 3.179898966762701
3340 17.839041982100458 -8.570072027530433 3.823584730226099
701 -1.0530087022132266 -2.6860537660059984 -9.037070859021364
2605 18.502023175126755 8.430684571842326 7.448804452124129
3878 5.938912948082708 -1.7140317069176398 15.814700692095608
1363 4.377936078052862 -2.4713360138826865 4.882490129054875
3239 -5.002845476634794 -17.943183245951893 7.110446336759999
3395 4.5220094601594845 8.670478322041715 7.033890596816134
4225 -25.842196693063503 4.925803214960844 3.3645565891884575
39 7.4486320027321336 -0.8042419004556409 2.7284485554707456
862 1.6215343826273991 6.479118632735817 -5.1849310147536265
3471 0.6831769920053196 15.033785760666735 18.690326617157094
940 5.759118364043471 -17.686413603454803 0.680267533310062
574 3.802311083802523 2.989517469017765 3.180322151905608
2002 -0.6362130688135553 16.158704243171275 -12.763463247402145
3177 6.467592931826194 4.587015276097898 -6.605406097078305
1633 -2.6367460084199816 14.223116971821446 14.410744049874285
3255 -18.232159903183103 2.1807208926204398 4.333763093463234
1681 15.42781568324283 -10.901740882170333 4.102259342342033
3798 -34.55430329175224 -13.808174250037775 -13.562578610240394
1745 -1.8541342898023596 14.603967794336908 4.735213940291779
3572 10.30623467241985 -19.494818411745534 21.415718705845034
1974 9.535296475139235 4.347465738006586 -8.667262919447657
3098 2.941244893417253 23.84114476539556 9.592451422848567
3605 -10.65001034705695 -8.532826283338542 12.304293369411551
330 2.0929048829539796 6.678955995451796 10.143396712122186
1588 -5.062940657341166 6.287679999954896 -5.028420901379655
986 9.825312745964478 12.228783712950085 -2.995443958142402
1723 -30.49449827568721 15.383149629617558 8.911819399648206
46 4.431720106319375 -3.3031449039892427 5.037164645576269
1896 -16.897304022265562 5.0584295602658775 6.871276464557632
2257 -16.946095181446484 9.653794268707625 -15.805360100450095
188 1.4140567725247886 -2.935571218349154 -0.4959065846343081
3134 -16.141441287962124 -14.756852435639692 -5.290128911213382
763 3.781314203697146 -5.584236355356969 10.837593746159977
1884 0.49346391442604015 -10.942933367269223 -11.728368395741883
2043 3.769272504295127 -8.384522825249661 7.889696990769066
404 -7.579266449086084 4.038641213585608 -4.3733954513706035
2126 -2.5329587749664255 -2.2749770648023717 -0.3517426316226404
3984 11.329971795123237 8.4350054364309 -12.057818860694784
2682 12.646655571763423 -9.23402148855828 -11.875802473679487
2749 -13.123264557825774 1.2800921718215954 -0.6760363323570773
3856 9.090496161998546 14.216119774356976 9.841487751384415
1267 -2.192329142335586 4.539321681618114 22.332759667704938
2160 4.611243818476463 8.45340144317499 -9.627008992467628
2579 8.273037009255562 -4.854135789661752 6.728839156712321
997 -0.8056985001068103 -14.105510480704519 8.12350429712549
2669 25.68176250867563 -11.686650066613284 9.452270051227377
588 -6.48505520966605 -1.9449251407370682 0.65050997309709
1366 -4.239676976285513 -8.213027476940514 5.781202868709174
4107 6.99147308287677 2.940359442935855 -10.043461826673404
2601 -6.226781988935653 -2.5150759103480667 -8.186568543324377
625 -7.652226921668335 7.435403646356067 -2.432288603320954
1451 19.000002612466588 -7.281134245880626 -14.49489023357098
1625 2.1359210979566963 -10.442586254033108 4.359305085126391
3580 13.715301013251791 -3.1124297904265803 2.4627106403190515
2104 23.758260416430154 -16.687678743064193 -0.9951541648452755
1257 11.832765898023498 6.004453111341679 -21.348106373004093
4149 -10.286823100015345 10.711664877465381 -9.564828891547874
1952 -8.257509478361182 17.975435335182066 -5.036241464557873
328 -5.261250157654387 9.393530067869603 -2.4612729487042104
1546 5.202924511340314 23.06249224839424 -24.82597059346904
1909 1.0984266072883289 11.292441307265898 -9.34732307813407
3296 23.808031536489967 -1.3824266732627697 -12.600489095343635
3614 6.583894983949653 -5.166016878863064 -9.014063119002756
3466 -22.631651524013268 -16.374976576871425 -0.8948615191521635
1152 0.2947008243181018 0.213055066492508 4.003702278743469
108 0.23517859787922102 -1.5374707882372387 8.476718794552502
551 -0.08876405216909779 4.337699564531838 -3.322677416992884
395 3.7477721702469813 -0.9763432834830098 -1.3199109487298573
2447 -11.27517239822231 -21.911742526837916 -11.73334954435179
2815 -11.982717632537042 -8.218628810948529 15.960583743705918
1930 -11.971881715250229 -0.6709134840697139 -5.078293223935829
1917 0.26132764367631117 -13.345030829439489 -3.79583703899027
3723 -0.7357914630550219 -10.412990669778367 1.3813032198350743
2219 21.355244961120082 6.129010078470749 8.823689831638413
267 -8.25216898765278 12.819879757787383 0.8412535434813974
4209 19.252434497992493 -3.474650763270131 15.855790928290503
617 8.048902002261906 -2.77126718131506 5.178108905648701
228 -11.201020613990492 -6.2330977591072125 6.161817796270031
2966 18.09452566358444 4.62939488028457 -25.640834788145163
1309 -9.219861590721308 4.415455903109991 -1.2977198077984493
4264 19.63391082231692 -4.3346019438940795 8.318360814618206
3876 7.834229669176475 10.299548559985638 -0.2228928272840592
1148 -9.562582302527739 5.988759095066378 19.41449511915242
2985 12.58466226722906 15.99862446690963 -22.847532339192743
3013 6.472551998119566 -14.600441919622263 -18.99473469214792
888 12.297383848753416 -5.292553305959666 -22.463795158496158
308 0.7916590560589759 14.074873249383105 1.2291517806164094
824 -1.3625081357540054 -5.42395944498817 1.2865865782954773
981 1.9352334904989925 -2.49406304744525 -19.337549118396918
2234 -14.792645543361605 -1.6966979564210873 23.06805033986948
3790 -7.351642485095595 -13.217383914588158 19.66181303944321
2673 15.905066202775275 13.577940360038117 22.03065865502313
1329 -9.414635862319862 4.295735077950814 20.250222918399494
2952 0.16469408267374472 -2.914660003941954 -11.483801812047405
2740 -16.40783936190483 1.5001288169586322 -0.8712774731669233
1790 9.093830064250668 -18.064535623725313 12.724403303960779
820 0.45769573048929 -3.321114808189676 0.6932270255917546
4122 18.497439808451848 -4.478016268390486 1.662287075195284
1063 16.4530662197741 -10.10581969937692 -2.585540583934841
2887 -0.3101149675507765 2.10490965124191 -8.698976291251299
1005 21.906336139068287 -1.1868094835061629 7.303063784252837
26 14.857201590068827 7.11539374692668 -2.78296228075256
972 14.373701279707575 15.220335678592786 30.008874179344122
2097 -4.150575222607546 8.353457695022891 -8.220986023658226
4018 -0.051474549702690046 -13.431962669640168 7.617649885675802
1334 -2.421972352674887 22.65335854425331 -6.79612440410927
519 -0.6781148316415669 9.448685635279524 2.9343683994878536
2005 -0.9477748787552023 6.208428136627086 -16.381074905236893
314 -2.448304762474925 -2.6460387517130823 0.6066933809320305
1508 -8.531653198162854 -14.689664210371102 15.528094967754608
2593 18.104886986291163 9.196966688666375 -7.722953521409008
266 -3.580171747181877 11.773177443159224 1.745981664175436
2866 -0.18724738421349213 -6.471804805331189 8.469013910454716
3743 -3.384038985818785 -1.3477009351531701 -12.493276441155343
2091 -4.560795231577224 7.353789049242354 -9.62138394231116
1804 -9.646243989241198 9.841310366626123 -3.2415282184020238
3323 6.228677365536952 -0.2041864517836248 -1.2288413058304253
2148 11.223945677851477 24.003747319737272 -7.6255425176670935
817 2.8435856420787045 -5.891221245807099 -4.363450116234495
1203 -11.489269153174382 0.2532143193757764 -2.4529972389533925
581 0.8963290406414182 0.05323455889602061 0.6991161818253344
1859 -0.9577882762392739 -8.616944737455379 -5.2884016633390925
1623 15.269300652691603 -13.82759249605959 -15.32094390161314
2396 -7.327739669390551 -21.330078361416 3.4662035307476873
3620 8.415257580650504 12.705788526928094 2.707249841444327
2639 8.972686306050528 -17.916181781044376 -15.976682713831451
1587 20.083009412913565 9.515046642138948 -0.6033663755759973
659 -7.130029837210113 -0.5165128303444275 5.063769135764881
3345 -14.948351001067323 -1.5322862635137107 -7.362082961675258
2430 -6.5467545833111345 -3.7164145674139393 -7.133389585207397
3472 -1.0329725267285723 6.126538602070157 -4.117978816700914
1831 -5.34331956091811 3.9230182426133484 -10.68756628457448
4251 2.15070587130832 25.179148264899965 11.411361965536887
3545 -5.101984734731232 -8.089431947558765 -20.618480754465075
1378 8.235121574083582 -2.8085362862343075 -15.136966204992394
3666 7.896169433645992 -7.7204800523539685 11.292939174195686
695 -2.0060599668550894 13.198761246371646 -4.380202818090125
853 -3.934611048423357 1.7750534426806588 -1.8705478829110262
268 0.7759741543188874 3.771353191227131 -6.946288580697176
3233 -25.35279157389153 10.15740727477565 10.708135586694581
1658 18.962529530562044 -1.9133144188264117 -5.442461980655991
2967 7.909050889047549 5.207982590702572 -16.42228590032285
3459 5.217024457163983 1.1786961876043058 6.280219827387085
3903 -9.74424831520672 0.5880758740767953 -15.790138163021052
136 3.063814390011912 8.261924805326956 6.879065514108023
3468 1.9002607882185247 9.523840700988867 -14.935506049670773
157 -1.1099157554174968 -3.9841946957988745 -9.93339393374319
3543 -5.536237518744635 1.4311425172937196 -11.400800876272463
3871 13.877013652019908 6.290015058069104 -7.05800781946942
3691 -23.30636202302021 6.899085034625563 -3.0332006500997077
776 -1.3237061033339776 0.5292389220315686 7.1412485743503265
3555 -7.065209547208424 3.922340787983986 -3.2879053318180853
3175 -0.5090403964688525 14.21627452769594 23.30884555922059
1556 -10.063248495738081 2.799728461152688 1.9985025139031878
2883 -16.951666193382106 -0.8218669553182634 -4.948149457881033
589 -5.266084657654949 -3.1824607256926556 -1.5332604284140423
1179 7.5950885063076115 -11.693161478336568 10.346326139680764
567 -8.222782729253243 -1.3350015063680516 -1.2796625788794385
608 -0.5285465177679354 4.023100916045689 7.313452899551024
3634 -14.640111797384062 13.459469949251263 -9.786801260157715
3433 -0.2413985844234179 13.985166401990934 4.19709010288696
1399 14.92200137272682 8.858191778242498 13.6374508745699
3963 9.73487924058304 12.99146329814044 14.008372433952049
882 13.214121448058016 -9.897679959955482 3.997527673303474
3000 -4.035392540657986 15.26960101568187 2.3732283434930106
2511 -19.778174815002355 10.166430422682623 3.2248549168473706
646 -2.728622901903353 -5.510546117625875 -3.1730597175607764
3830 5.946215561738848 20.615838393668174 10.534097627930686
1174 -25.604222900305814 6.99557048627256 9.418193349559427
2240 0.7108572181666116 -10.648483096175154 -13.351497592741156
3710 2.245856854874513 -3.168650213498527 11.988142758906307
1680 17.916180039519347 12.606154682143558 -2.101364912470096
4014 -8.214588082518581 12.466967575182391 -16.23361125057597
1638 34.05712158741431 -5.869881513756439 5.296563682107819
3558 -15.804201338032343 -15.117894081549139 7.275995055155
1216 -9.345251069837337 3.4092931297560507 6.2495314578050305
3056 -23.706991325583743 6.916759343377687 2.77294005596407
3845 -0.3595530504080323 21.292544110414998 -5.214032111352126
3407 6.42067767098466 -3.894179969351935 -0.7293681299534763
2922 -5.4780527269688575 -4.202355853495684 -3.3284862867024727
4085 -5.400406089146433 -8.957069872095312 10.467283216364198
3207 -0.9719508043427028 19.653742594575565 21.05674356074372
3383 -5.62273909174333 -17.52412750680353 -8.683528247769662
3588 13.123477181729983 14.243021592063508 14.831605516330951
3213 -9.922610982681167 -2.3953411097559094 -5.185894347910799
1566 12.555801029674884 4.734246998951684 13.68754162518131
3763 5.316709902250168 0.6882176590092932 -7.779364187788097
2746 -19.520521729257045 6.2770280915122445 2.0296887258900385
4300 -7.206241523673482 -9.918887667657312 -25.217170200475167
1510 -17.370758687383507 18.754812750661443 -27.969941107989353
2051 10.812136295455652 -8.072880738065562 -10.781321402250033
429 -6.304124288225567 4.993922804426697 -0.3934994204054255
504 0.17478717483105277 0.3906674406663183 -3.6488591965570545
1389 -9.352271241942939 22.01477234016757 -17.104252247582767
162 7.936168808374563 -1.001217258203852 2.3158904069760586
3458 -6.932787353823409 -1.2795389043986807 -14.50665210221815
2523 -8.43309884774604 -9.794243425748084 2.491279170419625
3252 8.393010246635727 16.368503087087344 -22.05038731754431
357 0.8928947120156723 -1.8430447962588579 5.888052644475896
3286 23.15302945413026 -21.978101676427833 15.752224696535077
3982 10.61776075076148 23.12282766247033 3.9092187704259267
2486 -12.244056706911262 -0.9889340208799927 13.986172767772056
1702 -3.9599177403101518 -11.399628946788894 -5.871133115539999
1720 1.615946265405359 0.46256659954304336 -14.276745153633629
1118 11.776303303770526 6.169815618358151 3.1601233804546673
193 6.177191101417923 10.492045106770885 1.431436052426693
1713 -1.2906036061434984 -3.331098001303937 7.9487504726448766
196 3.390561063483452 -3.77052242172864 2.5584655412374895
2566 5.787259100431059 6.948297604689709 2.653885485325352
2149 9.428160892909037 -8.049879472776636 -16.597555190229773
2115 -17.99445194142688 3.2391764217104724 -13.68810715356713
2497 -0.5409328749767082 10.497172909990635 -12.308431894485109
2303 11.110165104501437 -17.282937975296022 30.21099787757656
3169 -0.4635848475589663 -5.731562069970927 -6.8581712594729725
2845 8.617535440217482 7.098502681570717 19.010522535270102
1395 -5.232178600506111 -8.528058741028723 -28.09035572326872
1189 21.982340475888975 2.5374223026364926 -14.24855281035994
2411 9.48028747772858 5.345007147673125 -2.0232006437807333
901 -12.319625112647465 8.771833831078748 -7.709947882014445
1254 4.553416911584931 5.41535029267588 13.638018521640204
163 6.5395696354739 2.32517594188045 -2.111209003422959
1019 -1.5235262753300187 -5.125622449097683 1.001409075643285
2753 -8.684788544905235 -1.069047865231197 -7.7115652191110176
4095 -4.50977617448505 -20.961461893558038 -3.7728588729776336
2787 7.904055465242119 -15.878502244510203 16.470408531393606
1386 -7.573107265819597 6.252639795634433 -7.329981737161092
3195 -12.362814753863827 -8.750510920717396 8.226512401340138
3324 -1.535603304825906 -0.36052352085990574 -1.2185695980731635
757 -1.0668572766480104 -6.093586944574481 7.770120982552655
1055 4.4000431277166 13.36509193830876 4.701979843468368
3661 -11.860420154826532 -16.132332160468312 4.679906957277159
1899 -8.230714402391206 -1.0803694551591894 -0.4142024926724566
254 -1.9753078398960486 -5.383749636791738 5.170661851512067
4064 -5.341587046766926 -2.4408540568195147 -7.166540385730983
3412 -4.015567681996139 -9.522443115746432 11.29539166947496
3176 -4.953613772399367 11.971992741294686 -2.569384955853478
2111 1.4666551396162728 4.604759865856846 -6.041236479239789
2963 -1.9435845382211174 30.938662334206043 0.2572876282396499
1387 9.235644427637443 -8.463565781377989 16.31755657054842
2254 -5.918287457847273 -1.9556843358897806 11.767445202015198
610 5.16211765801277 -5.725144907059156 -14.310317612413758
3744 32.099272590769175 -18.500868169319457 -13.010236581239194
1870 -4.874515277504118 -13.287724231705795 -10.068463957825756
934 -12.474020071614815 4.362664498057639 3.4664392468724348
4306 12.360062633147304 -23.950289538764117 -7.217065117064321
3940 24.09950185966421 -12.905593969996056 -7.15149196979914
2981 -7.658548244387259 11.83435514435268 2.7422284699532473
3049 -19.71958612821216 5.607740566097208 7.021460758449812
2013 8.945582568512245 3.3152539252382556 -0.730124305095444
3952 -0.7954426049719637 2.1016802477558127 -15.895408429843638
2438 15.006428394878379 10.991490313636765 -10.780862980520057
613 3.3243951787316672 2.0182543522203846 1.7415392792226037
672 -1.099757932279595 3.54500277395821 1.0634569325543821
3890 -0.3734409120246294 -9.716133771299358 -12.992603616122826
1480 16.085369729388624 10.718890995394588 -6.720695265644034
2621 -5.676821155992774 6.805557648748085 -6.824458328662367
575 -0.6117089769377554 1.146826593826749 0.09773794675158817
1426 -17.4796690139317 0.31981532134312285 -5.692578045556815
1299 15.83473562005686 -5.345231255670047 9.873428275461427
2797 -10.800244592108372 8.058846789884752 -10.046258361601426
2398 -1.9020797459178302 -12.63112885763948 -1.6749158885469648
1191 4.103263024186094 -20.852045588634148 -8.52602067035033
1767 -2.365643323757935 10.623414087597846 15.170771146101705
1439 -5.201581455216229 -19.467611085661378 2.4427539111081735
402 -0.4568655313568985 -5.053639306495972 -4.874176357872079
1676 -19.536848187656965 -6.494641138708203 1.9595344373882657
1429 -9.231395489814442 -6.705905616354519 -13.341201163256166
37 8.234806274483194 -3.75426132590325 0.06081175605986787
797 -3.519569613237555 1.7036055946986104 3.932445406706202
2271 -6.694160909581206 -11.671294038273428 20.391388089828645
2704 -1.9906512919667385 11.416443915391138 -7.986901326058571
3125 0.029154730357347603 -6.956550737219477 2.8766121076861264
811 -0.5500993060485648 -0.16041361322098285 -4.788852403008661
3608 9.082161456186054 -6.867000623553027 -11.086161568845634
1402 0.6021040118040311 -0.18912747090031287 -1.218249575434637
1689 1.47957401261889 -13.684424248224179 -0.6058728760573612
3166 6.0074250478189795 -5.043822281087288 13.771601294970804
2432 22.67608105392373 1.6305439381758944 11.906212194634136
1548 1.0529654891073632 -17.995391509804737 -0.6596373993820723
3184 10.730834091373719 -4.692764442272684 -24.12225610286556
1979 -5.178721184342243 -5.914138086043887 5.218353594444618
2987 -30.616129045327614 9.942141804512355 1.7821299394087469
919 6.013616379298675 -7.14818011352311 10.659127042599067
3089 -11.501146846002488 5.00387791845433 -1.0580176012269564
2647 1.1985138833517817 -7.078121455403695 -6.068644741271822
2921 -0.418807461025611 -13.9016054795807 -8.761532091983193
28 -5.822176440960368 -1.7417690413917744 10.4814725192687
2837 -19.702880531849253 -9.601871410589016 -5.5194456566348915
3488 -7.277813865715934 -5.906979011266686 -0.7816108212279528
606 -1.8279091129539526 6.37248718809334 2.0004988982262732
2805 -22.99733771411465 5.178541037888666 -9.187351709895111
1166 0.8853690015164558 -30.29539984625262 3.9726321872716754
3310 5.885294721585357 1.686380794284492 -4.694482923715394
733 -4.226624482051067 0.9620486224297633 -2.0833369922607443
444 -5.598143972554581 -0.7212961862215685 3.873429446493693
1666 2.5555419859298234 -3.6605308803596666 5.413607130871883
1180 12.553761758885404 -4.7023403352447755 -9.245092266156032
3936 6.831967686451549 -7.22405846028106 -4.13724032516041
1926 22.60083132175023 7.467909039000151 10.975953716097862
3561 4.904596916185028 -0.13691725429730928 -25.650803609378514
1383 -2.4943125259489447 9.43989084422766 -1.870868569048435
3862 -1.5940050422428336 -17.796005548778332 -9.667844230009315
141 -8.418513616906774 1.8243489248749645 -0.7868471067839065
3058 1.9252579846416014 -10.824373782043107 21.447201185483344
1609 -21.116371557149055 -19.335626531770608 8.692724715564479
3124 10.629248136064804 -8.201624083689882 -14.936268001912431
2743 27.063890713294448 19.395808265665654 0.16802665649402954
2003 -1.5657573192564367 -2.841583440148266 -5.698699694922266
2655 3.996272751900303 1.6274244350702072 -8.062904323287627
169 7.050270879313998 0.6475215907017474 6.4020136931001295
1010 -7.166329166125387 -13.21891143962077 25.25252992169311
1465 -11.77787910319641 -0.045280708311034784 4.513661309875419
280 7.401179599984512 4.9486987302066465 -5.10741322364215
485 -2.4309045773450544 8.948129891521377 -6.756170950782275
230 -7.240612019135284 3.0206795715088903 0.7224962832941249
321 -5.169152921702254 -3.619945586067603 -0.11443122274602013
4133 -32.26972324065195 -9.629401783646705 -7.652177855001408
3652 6.461832145468077 6.456346659224135 0.03025577251862315
2603 10.872094547777223 13.181535253456547 -1.076999435114573
655 2.7651234612894284 -10.174092471810006 3.214358723316742
1027 -18.35290352610477 -1.8993005365212834 6.9110870992744164
199 5.4738511320258 -4.703331658688969 -1.1612816479683785
700 0.9559734258038496 -4.70845097997025 -1.0402254882431932
60 -6.235772574693943 -2.0816591913795164 -2.2278599703912483
20 -8.20684757782927 8.91433791263708 7.489332812506755
796 -3.7483356035156823 2.448777739613454 -5.1591813500770956
3428 -10.043323820617303 11.916241154632356 -1.9301666824059533
539 -7.255176871882074 10.28546597735413 3.3129548148884482
1651 -12.056704284341519 -2.566611100641616 23.10695230982314
3238 -1.908339623304059 -4.522337737303072 4.811618939792683
4022 -14.302557211576408 7.4947793717062545 4.29552481676431
529 0.37489421418604774 -1.1619012235084616 4.108667035346103
860 -0.07561955823014599 0.25208074266060754 -10.721982116695909
1132 19.508999815205225 0.8736855633220628 -16.64076791299035
3727 -0.3205434748173442 2.2417067266886215 11.836873192153872
2311 -4.162421587867984 0.6863492390591323 7.517426011456499
130 3.8686730196424772 6.133167740758825 7.263271501497257
3441 -1.2329904551009896 14.087970026296185 -1.2139709419354183
2184 6.997222173075774 19.43458153646434 -13.568720120676144
258 2.292478986216133 0.4214436791915038 -1.8990813767449357
3835 7.215604129501063 6.866101683682507 -10.302970691462132
4309 -2.663770897443037 0.05099251131581522 -21.877266603711487
2712 -5.494383963593949 -5.737570624438076 -15.887184354943352
1572 6.175921974623415 8.474574903646337 6.00204215972382
3630 -3.189306346106451 -14.361898787345725 -12.414658161240997
3123 1.567166542367103 -2.275605533018545 -5.596263146684465
3554 5.6003592503000625 -6.959884469488885 12.76953625300918
1540 -4.83455866824796 21.723803273638527 4.0475099498893075
1858 0.8390899973141919 -2.0737155867438095 -8.442146908913703
1951 -12.452649668329505 -5.426403761260778 6.918213937519551
1032 14.88074246663808 7.9279179780131015 1.1785731941993092
2048 2.99222364882957 7.211034426370909 -34.362587684299534
3867 -15.219561947257013 -6.93216938925134 -35.094185318122115
2880 0.28252883627508407 2.4603704076374475 -8.36757712573575
3503 17.867092978340473 -2.1437067213439076 -10.203698591697776
1297 -3.0984669199011963 -7.797499792328327 -0.7837084667244533
1197 3.8299650970829013 -13.992065055388442 4.342871748591435
4304 8.550104474566323 7.433808034132929 7.309303508051272
2365 -3.039869486382018 2.6109407926547834 5.981207590571579
164 5.525099877693985 3.8835948039975663 1.1032686068188315
4261 -14.186924537755445 1.8765841123869376 9.133619532422495
1084 8.447677691894905 -5.771231188175243 9.661736090220428
2587 16.793431802902425 10.692088857987361 -5.745242203228838
2822 -15.774588169902687 -2.32914590290211 -11.64559626240262
1583 21.744532048475822 2.6871637236452184 -15.162558266582062
352 5.774560629050997 5.161461614058461 -1.4201870913440005
4058 19.808616904344095 -7.978612871523324 -16.12245368537247
3997 7.000955542831186 -16.167721317286105 0.5502160536943776
3912 7.7493943202626765 4.790028604325776 -6.783806142058379
744 2.594542998858564 12.38071055223382 5.117749763913022
871 -2.5186675127551994 -1.9753451186112352 -3.8399872640963943
1760 -10.38647617696642 -0.6621545990360124 8.05993093243346
1605 -14.72879736297291 -22.6316536682918 -1.952354987716496
3118 7.678113570512833 -0.5550932601802903 1.7073152483887604
2390 5.41678322903892 -16.53326999367679 3.299832067002635
1551 -5.433199556195606 -7.529130305460722 -7.6649379062360685
3405 8.232524507610183 -0.2639034897358808 -9.225730622220759
698 7.148820075954556 -1.9701467997360227 -3.8205743621703414
3780 14.181443996232542 1.202235249001944 12.468315748165818
247 10.65933075108902 -5.932523152750682 -10.943394089728752
3073 -14.776869687734797 2.852131578543791 18.005386216827794
342 6.841671141160652 0.4820665628073105 5.209390803489951
1398 8.527585788733543 -19.16134644161192 15.615664860019411
3189 11.353816033960008 7.999942327767854 -27.896621977314428
2047 -18.194332585159476 8.462121499897004 20.796403457492303
2750 -6.787811651479356 16.627997331722945 30.692335651902454
718 -3.205484022245758 0.29702223461283955 9.476035927857021
4151 -6.017851184497382 27.083038080285668 -0.42936599542831455
2556 -6.109228395770742 2.7430761980809715 2.520590496472075
1255 -2.8611074412374617 -1.8735669687248633 11.882885341215365
1369 -25.11472190018836 -0.6379299394244384 -8.447735215417708
2562 9.952889636758853 10.60540157947479 -2.492290887582826
1647 -8.125803261798893 -9.805808267426528 -22.9720834845767
30 1.236332299344063 -3.5097418259878976 7.714910536418423
657 -3.380521943828004 -4.170992609110306 6.567395210086844
2659 -7.329347649210769 -25.014752828164912 4.987764948195656
3704 13.545124614065303 11.897973132271918 -8.491943680775844
123 1.4093195013141868 1.9269446565826864 -4.109400856222293
2700 -14.151769503113936 -13.452310552675229 0.9003096355001998
3173 18.867868622210164 0.8069254609339972 -15.685189389684275
3797 12.595990231997906 4.030271717874283 21.779210434666737
1558 3.8521193780850083 0.8446530830181759 22.678170612128177
3715 10.351365568543141 -4.676961325120156 -0.7266417067184278
1850 -2.398539061097339 -4.927953060193991 -6.657117636956402
1669 -0.35781916696947474 17.213760448539556 -8.57222598630386
1834 4.422147524358499 14.388829765258828 -0.8414536076005007
3520 0.5525120780226553 -11.571118139437862 20.38599147693845
4217 -2.6969244650874926 11.699201011857635 0.5103464061888615
3708 -0.336754244162771 8.028480109353808 -3.6438352125758584
3295 18.076599356785767 18.166613733410347 -6.587580737411533
359 1.0991783273998703 -1.169245227752512 -8.419148749427706
2482 16.590124903984226 -9.349559231138079 4.945638605412002
1721 3.699869217176797 18.23244620738585 2.8739089482313025
3718 14.179315400646178 -10.56177914654337 -11.21259842237941
3183 6.547736923623899 3.1492965407753593 -10.485762283248015
1903 -20.369842022547566 3.4315700305415495 -19.978322726596552
384 -3.3627549385877296 7.843700704865512 1.859540416249832
1061 -10.947218033742885 -22.57778595355293 9.292922273264411
2318 6.45912823810099 2.902268254015662 8.650500515903943
2042 -9.846703521396734 -7.908216876874426 -15.435374551803367
669 1.287325845619184 6.324694218856361 -1.1436419387220402
2770 -2.888852621965826 -0.2573449322587291 -7.86917518604133
1955 -9.8456096737316 -8.040573714145005 -17.677188023337127
784 -4.022443328759638 1.5827431932905645 6.739164958617986
120 6.335588212233244 -2.3488852977780583 1.7550930686437178
2263 -10.53960089685771 -4.33005901689881 9.976498178109134
3301 7.358589521057576 -8.76888705468526 -1.0835317824752666
1177 -10.024981701503515 -5.299207000686005 0.26273291608973737
1634 9.163810049321045 4.371409433688737 30.074359614480937
2842 4.753057740438768 -15.733835929321208 -8.095103642013155
1284 -7.567440047626377 -2.2015319536009987 24.644487366461277
3574 6.0362642407772835 0.5330970131979588 -11.90570441824359
1696 11.22710153821803 15.839129525241363 -5.551588019965133
1885 10.58645588736281 0.6505510972912887 0.7286410047496872
3759 -9.751652330019953 -1.8703332421508094 0.6196022884801794
1428 -12.006934486622514 -0.5525923054439732 -2.9614747066746774
4086 2.6213371395790483 4.94522988488621 -0.4239556796555628
1571 1.9079664510819436 -7.192696579329405 0.9907774084134707
1406 -9.91592516129999 -1.45394151199671 23.676124488589938
149 2.631332433411295 -1.9161834784878233 -2.136323795874306
3379 -20.198248755967942 4.427727345022581 2.2134959776213474
1155 0.603573224834141 -34.46317743634088 6.533107305296724
3516 22.63914174096583 -5.931089934025685 18.77917028926147
2928 1.9832702867450043 3.224933180563482 9.232175438025829
72 6.798481437615902 -2.137354368058304 11.796555532330581
3930 -10.096899154056203 -0.7583114648408563 23.208189199985398
1524 -20.028771175170125 18.1151213934307 8.291761779194065
2504 -7.802298700001976 -12.567186977120574 -5.193618806265622
1661 12.655352946531826 2.8768720258028453 11.10586492096105
628 -6.86623013371756 -1.5819192402131994 4.551542366522589
4179 35.95790596145851 -1.373883766909222 -1.5126452906991583
211 0.8543102544192989 -1.627513283492387 -0.3053142454499104
3783 -0.8811307602863687 -2.205134844510127 17.67484818764994
943 0.594953362726501 3.491010790029069 -15.020591245588843
1009 4.2804220803606245 6.6989268470946755 4.436820649041313
1401 1.2927095318666482 -5.3741080374502905 2.8744349618431513
933 24.450604813650852 2.6250737284940127 -21.168813784050045
727 5.318998184290194 -4.376409590858607 4.227193186730734
372 -5.86390909048585 -0.013229465518849855 -1.4850214405823146
2089 -10.186728733227481 4.767256024233663 -18.113115486859037
4172 -4.632739605175724 -6.8253012254595475 2.723751527825622
2389 6.151765933520674 -1.4924273488362085 -2.8159899902215786
660 -6.438176811943137 5.994503041671621 -1.2357425520404448
7 -4.9262439551508885 -2.7606990742334347 10.988874331807928
4017 4.294574775351746 -8.595668402549794 18.299960692154503
2239 -5.1699139985703475 -5.559720507016659 -11.150163014963882
1778 15.402232392466377 2.0738910202123546 -9.393228764875792
1338 18.258069519899966 -14.415937203466823 13.137606213502073
3045 1.3118381563891184 27.693583585232087 -8.669741491192845
2244 -4.305818236365391 -0.46034033819601067 -8.429059398163957
21 7.553289740298745 -8.741157968621131 -7.866509598578348
489 -4.936414908270798 8.85580430848451 -0.2720035555085668
3442 -6.24732293422808 -9.599282058733866 3.219840260573538
3919 -4.07362210900572 10.372297437280931 5.40042082198955
2214 5.452649318767098 -6.756933925426743 1.58996479052493
1124 6.182373649812022 -6.8136570837522275 6.408157122383677
94 3.3022601612748184 4.727244771681599 -11.224041345593767
1274 20.61089480069509 -5.4558251727125935 -8.699820816034624
3943 11.725784507826027 -1.2840382087902809 12.377068628463654
2626 8.574131636410748 -1.8581419529561805 0.202970413121345
2726 -7.648837503517915 0.12739105022760602 -16.68927840650027
2302 -8.587901572024737 5.0718903761290735 -18.729488520040196
2122 -9.033915339217574 -1.5642678952943347 0.35301976812862895
4202 -1.636980663565149 -3.51152137833707 5.894256568650076
2065 8.384089581465114 -3.15831265693481 -17.470726167139894
4236 -5.361537979927633 17.639419478581214 2.9148399903206537
92 -6.571920231779289 -3.066635847827082 -15.922514004877671
4023 10.813108241244253 -7.804272107431585 -10.45807056738868
208 5.591749395683446 -8.85901507705147 2.1836807065164994
2897 30.8124922675304 -9.546252628217825 -9.10192720668533
2658 -27.88748782696792 8.249849936331751 -10.502642321241158
1512 8.473438176131038 -4.82649741559633 -0.45906548281416865
64 -3.8003405587851833 -3.133945779198852 1.3732412521504191
383 5.603145292848646 7.667888203645133 5.059194945369477
2849 1.796517571445763 13.05979170140277 20.81036859716911
2760 10.382711149516055 -7.3372947027163145 -6.695742925316769
3440 13.785803397095107 -19.06954960280849 -1.5274249865077758
112 -4.48139337615125 2.804527460436164 -0.9048326773430103
2395 -4.725620584000182 8.813204383230778 -0.02640792412682507
152 7.292807894375709 9.120726768986147 10.448406469712447
1425 -18.970552645410795 1.5503914060493593 3.2448896767410993
1849 -3.6236853015352644 6.707905732095549 -13.149363026990217
572 -1.3453556165330731 1.9638687247930282 -0.8021368690219589
794 -3.8638744514898264 3.285055480524985 4.094908930067244
3980 -13.861834243123408 -2.8401557272599396 -33.44632135106616
510 -2.453276644951308 -3.7201263346712605 -4.109634741118442
2612 -5.2732962595248125 9.4496653637386 -11.93838169339832
1352 -9.702782383234469 3.183936577837934 0.6317887846161021
4275 4.510375719292681 8.79426635447701 -10.13934871040903
2001 28.491752511717955 6.036296979372906 -11.095598214854723
4206 -0.6559080874434056 8.076883497198304 10.730709916205743
2917 -0.33116752979847036 -12.985802706962115 -19.023190206698956
393 4.8404787818447215 0.30665779556320677 0.957324318901921
2393 -11.959719967603224 3.9060140990180603 7.130426459983524
534 8.357290569246404 -4.512233860737236 0.27077745910992845
3429 6.401064833339433 -3.423434814607668 -12.476670966391833
552 8.752464369788841 4.789763045533574 -2.7591302447114243
616 -2.0732215982754383 5.281239486857448 -2.618507271122536
927 2.2738265917323357 5.574076609834091 -13.306539111497724
774 -2.2240171815900243 -2.651793583092312 -1.3590496866924344
923 4.08643017165884 13.182627366130882 -14.411364988442067
2515 -5.9363288593067915 19.06642055779602 -4.672150056302495
1173 5.525514702435744 -4.583871002465562 -14.603410704008066
813 -11.157095541650294 -9.221222605787165 0.5261570818585419
4013 -2.804754728044229 -7.731784887746255 -0.5787260129084622
2689 12.528691927680743 5.367210384627719 4.321311232068029
2210 -2.3943463923338473 -22.389028777250587 21.126587850392113
2494 -1.1960425003602815 -2.9801647697057487 12.901516091208558
4059 -6.806438641484908 14.160016176676574 -0.6364328024102727
1810 -7.389328150730223 12.06218518717142 -13.518790969106284
1532 8.56704384549616 6.19930113384624 9.761153415078063
1211 16.75203662892955 5.40907667957816 -7.086499944257226
58 -8.498206651505832 6.244753768583785 5.377335177437412
2692 7.376943618256408 -18.14336024501689 13.099207099080965
2667 10.405541510711192 -3.442219137307837 8.801871993715626
833 5.682731090049657 -4.505151498215383 1.2553690437909262
1156 -3.44231539550881 3.6908093396099835 15.261016908658982
2645 19.320776550609693 12.073293125940738 -22.286396760226733
1409 8.932985777392686 -8.218668448923347 1.216384042473811
1045 -0.5214409619404122 8.605328042907 -14.482525138261007
3610 17.623016114253073 4.288348123756135 14.43448715065972
2011 21.032870406202996 14.281883145323722 12.96793245000481
212 3.6799060743693026 5.5611781374047276 -3.8041960230283807
591 -0.557314168817332 -8.24972656709895 5.448533975922356
612 -1.4818753721089222 -0.785498651972244 2.630559289396959
2336 -12.200232386670125 -17.88888854480028 13.093179440354534
3900 -3.9867338727754227 6.37908291241243 0.7953137370185549
736 -1.6562688917282349 0.08231480691187751 2.388565878285881
2033 5.52709738073231 -4.265608303338747 -4.285877089122635
1787 4.170993208346515 -2.6491381675421244 1.1463203050108388
4258 23.094147939725705 -15.22386341491599 23.577001257383365
4160 8.163276143690842 -8.231079735495928 0.18907164225565085
2513 9.705975834814248 16.288886960655862 -16.274452896363073
680 7.423269548281085 8.047864040025459 5.594975756324266
541 6.208365655059412 -10.378494769897637 0.9656885799826593
1201 -4.5158059212068595 1.3126044983015936 0.17817615576703005
2641 5.757692963337026 -6.795334824048076 16.792297328690495
3289 -3.4841177774093994 -1.712577916152044 22.927855793673743
3619 9.914802311751147 14.744220575617563 -11.77444938499308
283 2.9074506808667584 2.0827654683926737 1.1720000682892677
4101 -5.164503481355081 3.364256621343315 -4.995292412980704
1529 -0.39474419009317596 15.702912071657646 11.362615765363856
2798 2.2035487424825515 -3.4253358169170847 9.48246042949976
459 0.29776777463655585 -4.21771395120947 7.181623537874101
2255 1.8445529496370876 2.3802684738383912 -4.703039595876581
3409 -4.226376185205219 7.070843575960986 -14.350856291183584
1261 -4.403046066382621 -15.564579513517197 2.3402674457674557
2722 1.1244035759602626 1.9824656127292122 23.6416917891582
2992 -0.5622291731425506 3.260471488925008 -4.432189172617209
3719 13.784649474175103 -0.09539232368790095 14.41298032681625
1694 -3.231643387795507 -14.08623957364257 15.677232719000541
2221 24.380088058686887 -3.501099687561224 2.0191988769651115
1908 -5.428194450887049 -3.5264915957270144 0.9835527127693873
1511 -17.857962304135484 -2.1266200745825516 20.238797669370225
1714 4.1893582345027545 2.2005176381295826 -1.2456486093005994
3460 0.09341910904333657 -4.455662725541779 14.397574905194084
594 9.911983072107418 -4.0739707000229695 -8.550756646184267
1484 9.406781419195246 -1.7391549020271653 -16.59497871072997
3308 -23.47611736491307 1.74216903791927 -32.99463446797492
1729 -0.40309081621960224 -6.395755657729365 2.904362713307104
2410 -14.142443745140797 4.476556583171126 -3.593233160019231
2098 -16.97015837079297 -0.39806252127186825 6.20874172045419
3204 -3.919819760354597 18.560919575712916 9.261590794770136
2651 6.29196024509002 -3.3422514491735815 5.49596662197327
4091 -8.689030930259413 15.135096924332592 -17.70002488015302
739 3.9702703998029207 5.412576105751496 4.440326902543204
2452 -13.858236032197416 -6.8555008213907636 10.838389287293353
3732 13.98608197277554 -4.833119334641302 -19.680076814279435
4249 9.269497966188695 -11.70610507725041 2.959614481557017
4173 18.1362473351829 18.29959393070166 -16.238005821149315
1921 -12.491286852994321 -22.379075454889794 -11.764817393708988
2086 -7.2880668418790275 18.9592862016494 -5.827809914952802
1212 6.696588929383891 -15.428140059759349 25.535183681067764
3542 10.177580156110444 11.008483070563353 -1.7024529454296824
729 -7.8669432286480605 -1.2117282471390092 -5.175311724397551
260 0.47270422156774666 -2.6481803274319913 5.087543435661798
1096 -10.810571268822647 8.257501954798235 -1.9808400343829127
4004 5.302939199992408 1.0710979735512596 21.83575450493506
4125 -0.9412488922110092 9.554996317170039 9.558706316633202
2268 -6.807584163739968 8.62158709278645 -17.064443472233357
4240 2.261981653079065 5.985815892925133 8.420104527894857
495 -3.4111997631481477 -1.5914501450448166 4.267723621626113
2351 11.263590270984833 -13.491783280619286 -17.424486905731403
171 1.631591558246412 6.66271139654839 -2.14672283959505
4118 -6.672421432679702 10.17879218458453 4.222982454438973
3143 6.631890933007686 -12.752410602737742 13.998219898141942
3141 -3.2137205739370494 22.89691096312701 -2.000268154725055
2505 4.018433238039526 -0.39662209306103835 -7.772174737383582
3944 1.2855299976503463 -4.889480690875262 28.542154409672055
1205 -9.364599790916477 -2.075948616083245 4.009447998929878
3941 -11.293233510409557 13.637869662683418 -5.624013623891921
734 2.4369356612429542 3.976409490874495 6.701805008880802
3311 -3.0475535617339187 -7.107633864483282 -21.214536832232184
1379 -9.97921777438645 -25.226610778262206 -4.805839334041742
825 1.5483241673226302 5.337453924689466 2.8619133134668298
1889 -14.539185987671136 3.75806201936862 2.960450637600204
1071 -13.849492294863694 19.400853640521163 -8.758390572118618
410 0.8751155130294476 1.4147566812218533 10.415346020656866
3937 -11.527944229753462 -9.123721183323452 13.249353244776511
2542 20.839672679455745 -3.1616563365137402 4.536793111700359
2894 3.076813276913653 -12.56171693154035 0.3706940725259088
1436 6.958749125390158 20.865025202529242 -4.728525389536002
465 3.002378484643584 7.366715594935355 0.2233530617701254
4316 -16.940138294374545 -17.483209310997324 -15.84668183909619
1315 -20.903446206079778 6.629780361329489 -13.328197928466366
4116 -15.788270895080933 13.009751584370143 7.160208498134118
949 -7.863719446738141 4.65068657085304 -4.537997812649399
2276 0.8604867343607912 -0.964817897838129 -16.15611610764465
3358 4.627644467773802 -8.354551127908573 16.896393879012397
3808 -5.475436502180341 -13.78119191227732 17.919442898985917
836 2.9322533670129327 -3.9009086555691184 2.3233862296212533
2624 3.4506254749800767 10.075440704454962 2.493829321509307
470 -5.510764049254459 -5.9263963945864315 3.5145776701269567
849 -3.308846012083748 -5.358795517751972 5.440529536480418
3190 -20.469936788973342 8.28300789566923 3.4734345778403974
83 -1.7307827408534955 1.844792670958846 0.3392556642298011
1970 12.963441273169673 9.964003159244006 -8.818419686785036
3272 -3.7628828315782763 -2.8925106579330047 -33.54852966532338
3523 6.7649211757089 2.718924566809048 8.389782050507169
3848 5.620579700609025 11.207709546096131 1.9901389146775716
229 -2.1625180396035906 0.21914581064246835 -4.911324215491898
1123 23.82295981417502 -7.062056575367407 13.575215809240756
4213 -20.17536020532918 -4.35935768811048 -18.468480573539125
3129 0.1868846709852066 -19.79080452407439 1.2553593886183712
2173 7.626988050882977 -3.313758507070674 -22.291835727702747
4050 15.072115502371396 -3.25612672026422 -6.089127165907127
1525 -11.097531205866561 6.472632170336899 -2.7914107810721336
2988 20.353515374850513 7.732378528673209 -16.711089057130064
1901 1.4238833571906293 14.693945869657922 -3.784672135728439
3035 17.99653651388489 8.6070586216153 5.812476748764424
2471 4.48304719742126 -17.643792468584532 4.31827610635444
2090 27.155565997917297 1.5705010771418109 8.907286794410291
4281 -9.808269083418182 -4.090969037113403 18.299495113980203
807 -4.362434040703493 -2.6771183950673496 1.9861990120241924
1741 -32.29272193271416 4.2797975698081325 -21.350080231387388
2735 -12.774418355238328 7.219424249610552 3.9520455395405567
1536 -5.14085154248474 11.88653461300639 11.79257792882462
3857 -12.70493388853159 -15.181762767789193 8.390034092746975
1391 2.0261192149548197 1.1140408815501504 1.0765750220300805
2391 -7.866744413683759 -5.702400743785013 -6.8636379080603795
2458 0.4520748838861152 6.163896079972216 -23.29317555155031
4045 -0.5474382990091284 -14.842928596415934 -4.95774635039388
335 1.7535850450779134 0.04221212714528015 -12.054002681719124
3299 -14.847468549098863 -10.482243720391253 2.84920227944171
1543 1.111458908254149 -1.5363839865259188 23.170014343813634
1704 10.272235512666628 8.762162683121828 4.71281231219834
3171 8.386645545876172 5.636754677471691 7.9114602071267734
179 13.741199375627426 -7.7268290939914905 -2.5914436876970752
2431 -28.12522465081023 -9.977570112318581 -5.754992771463457
4002 -5.662965573973144 20.573420457560005 19.735876051219975
1350 -11.258369291511533 12.769265228086267 5.403976867222825
128 -8.596134467941043 0.05364701875991739 14.59520330128441
1923 7.871093997218118 -13.447726337495535 27.434982281183633
3452 -10.548237532751715 -12.83476558582467 -23.452887444303343
34 -1.3574662809672529 2.534270448612571 -1.6907913879104213
3156 -3.011889574700344 -9.407233706529565 9.648635428081379
3234 7.25545606929975 -16.752876064556087 8.336197887876859
2165 -18.920781817271855 6.108869037263802 -11.68157336732635
497 -0.8866350665437323 -2.1087188675805066 -6.713160587032725
899 -6.319035925458899 -12.131687564308328 -12.113393911661536
4246 -5.951611386726357 0.7830761445336757 4.28573421354406
3168 0.1583018923163345 -6.043600608990795 -22.22132126004892
3772 -1.2219224277447793 -14.998866501334915 0.34317365235906494
8 1.6707106490684882 12.100714626949733 -4.862684608504539
4271 0.7608888443737996 -0.6565251749758952 2.9794005092678106
599 2.481857417125342 -0.29120336211684106 -3.711817405677976
1643 6.2948719623871865 -19.245201778423457 -5.579756635686669
2455 27.806480908974134 -18.800478900476328 18.783855043119864
2670 13.677400770580476 3.756350360495567 -11.678654587596585
1774 -5.255564080036233 10.616438803860254 21.620792989657296
499 -2.614580742194051 -2.621863660787824 1.9268117779843108
1743 -18.975445860842672 -12.92717316948133 17.56166212236993
271 1.4200085845329906 -3.8301344434103783 -3.2323835460234736
806 -0.6910848063667014 -0.13564118368091618 0.11694362225794669
4229 6.633179644325261 12.497573890247518 -10.808184035370362
3915 -2.9633112117077096 8.122179755100309 5.0990356133289865
1307 -8.540450915191505 6.110578080081047 -7.630759099965901
3354 9.643735823155643 9.519066902156542 -0.6086192795702022
4282 3.768486206248856 -2.0203440046317778 11.331189527509776
1099 24.434825218923947 -1.857691154430604 11.330227766544008
3807 -5.348626711213588 14.210501077255852 1.9825764606943437
3906 -8.183706089419895 6.711350309677355 1.1969114287604394
3681 -17.764283486606708 -10.40219066766328 -6.700286615577174
1825 -12.828522147312674 0.5570780814976553 -10.733422023057754
841 1.1333854126900504 -5.073713882381655 -2.793779922835858
2557 -12.297914553939444 -14.670462709167163 -5.154094823808678
426 -4.098871526730572 -13.834549759860415 2.9975199581686445
1330 19.32750171283089 1.5313980839276307 9.149140802606494
3435 -15.428493818983148 -5.3422475097113 -10.064212838949185
1942 -10.948217506943633 -13.33048762162496 -16.268641202834264
689 -3.737205925038273 1.1894633165629669 -9.921075371561244
2483 5.651538279663096 -12.943372407431097 -18.848153495054785
1141 3.9012451412756253 1.1066433295936993 -20.784852017765424
434 -4.21423970331629 -1.9552469015958271 4.447475453047381
692 -2.238191300944019 -3.4323492654459913 -4.1927440936612035
73 1.6101760456386527 -6.4007836835086875 -1.080448526568331
832 2.1163489509661186 -1.8931420658046765 -4.113961404436953
2473 -6.771906223846456 -12.398042347409765 15.01140020093776
455 1.6723779096694924 9.389577648835921 -2.8806487202203814
1808 -18.82644071338411 -14.389026344076152 7.656159915797093
3896 8.788066216359367 0.20631627781216452 3.9413795706946755
185 6.797326478175212 -7.165008378786629 -5.396157853946145
1820 9.347029400048855 -19.046752380893338 -5.228958756849109
3038 17.064816915405725 8.693724644206458 -14.00087311223148
1128 30.400708689629116 -8.011555937551625 7.679958980533772
3328 -3.6695701940358165 -12.261822169781919 4.825468381715436
4030 -7.761087147620437 -4.781609393515854 -7.2645744915969654
550 6.606386048270993 1.4938041091531338 -6.755561222443433
1225 7.792776555620029 0.9925785008389911 7.33750408279515
536 -1.7349593158795102 3.2795692848567097 -5.490273085014669
3829 13.250999393613034 -4.722957877315632 6.213020958390405
97 7.877907405126729 -2.8568331947945693 -0.7698313586200302
514 -3.966699350351114 7.0584203757163735 4.006021556972097
1593 5.039505992971522 -36.65725275826025 -1.491663005473536
1772 -9.418512816076591 17.071864653401295 -10.213073702897512
4183 -10.500424300503992 -6.808636970913136 -3.7368989059856217
1792 1.7673000811718307 -4.372345673636132 -4.733519616002391
1016 6.1035850012801545 2.420562668512448 8.37598095046352
2377 21.547921569212406 20.122274446224587 29.003005164707996
887 -17.308653221583693 -33.009611709030565 -10.52145397636779
2265 -10.990513310169383 -8.83143658972359 7.384183632423919
771 9.382470487410783 -9.219960295646658 4.305317639530124
639 8.224907351297121 0.4915379685942323 0.8696071619462723
4016 20.50131348367123 17.829253981299754 12.672063330082613
2138 9.565421190857757 0.8581964385503056 11.599102848746622
3868 -12.530458837015368 -1.6770122179140006 16.053563261676032
2791 -23.131434959630923 -7.8066433959046595 14.136938443837542
2185 23.34080715624318 -9.59410210022158 -5.722269193373753
4038 -15.097768726185215 -13.928470814595556 -0.22312496328944387
3062 0.32536181883382737 13.170425708362163 -6.006878609649165
3640 -3.772816558292001 -12.166929405450992 11.648005736293543
2592 -26.391631931639335 -8.068724771097415 -18.597313326390722
1602 -3.265038304264405 5.415439205886456 -2.3104820675642985
614 11.432095129760707 2.908064078970923 1.1865411687426644
2081 -4.214536573753371 0.19184061010808812 6.022019712395873
288 7.575564446237157 16.942933190703425 1.0056197634531676
1351 -1.0254506832401489 12.486034688171529 0.6411213766115198
2926 -19.358100952700166 -15.460599655132553 -7.696918959333067
3453 -11.213377917396324 -7.429451345913633 14.682266361650052
1685 -0.27559526234972476 -12.32824841313054 30.19582799200392
2371 -12.680603417624535 2.780556472956023 13.214012025291375
1575 -10.74803482537502 -0.272399975820875 7.982575948028742
3579 4.976897817802521 -4.934295921483359 -14.55128138515325
1719 16.395446682676504 17.444005020069078 19.652737122894198
1454 -3.5675101175154444 0.9756312442208939 5.435386523568503
838 -4.460554781523632 -1.7136112018044425 9.132642090533055
1594 -3.828752725530714 -7.207855249108695 -5.733192714100004
2227 -10.045870729624891 12.272340247592195 -7.023681287818159
122 -2.693778801861795 -1.6091900972255702 -4.550451931782319
3372 -12.20123701959901 -23.87881530792333 2.837330389547003
4170 31.635413906216623 -3.8365911603979446 11.022619080175119
2324 -6.413727300477267 14.390462126852093 9.877485485611645
2554 3.951654310546263 -14.275479916999835 -5.314765201441618
1737 -14.989677018329736 1.7771296389040458 -7.593375967509707
873 -6.596637654072401 7.118561330050957 5.454321522088545
743 7.402817361449624 0.4689184601063791 -9.379435448373629
644 -1.2967088344346658 3.2306464785875453 1.281550787549505
4260 10.310788561687096 -1.7828774298154326 12.30423104481253
995 -13.14374430874084 7.526177960933 -5.854743163017971
294 -12.469120995664023 4.039632802318382 -3.9160204364111757
2142 14.163569876747054 -19.76954781393594 4.554303259193547
1339 7.151266052111094 1.5083157193433152 -14.660825282622126
1289 14.124853569601722 6.178092897647743 23.76078897307315
2696 1.1464404808196265 -0.4481624148105204 23.850160446786802
1364 4.736861620137017 1.471561719060671 12.426371943958895
968 -6.9263054635614765 -5.552347338572341 12.873922761993358
3739 -12.006198588605958 -4.010798017748301 9.37467845990548
3658 0.6262699413163559 0.09081946515681277 -12.653139061198068
3167 10.081428222838113 -10.468222340584663 0.10894232848084005
618 0.9505408938564348 0.06429387634659624 3.7502323890498857
3335 18.187831523055486 5.533616234259947 -13.395916369135662
2877 4.979369200650332 4.956510109371321 -6.268570841028057
2571 -6.474074926596603 -12.157354192800446 -5.071670548008697
915 -3.0457622459277243 4.943103192539488 24.866414883349503
1281 0.6986528456156165 -12.202416190222337 10.618250554072116
3728 8.946465475466585 -13.35805363990688 -13.070286940111858
2951 5.782740460390369 13.646426385064352 -7.826147173642989
1039 8.34624734847404 -9.882658348318754 -11.655151789986368
4212 9.711323500180452 19.60445388235068 11.03515186995808
3034 6.9114008323820375 2.3867870122645938 6.057146232676721
4139 -11.64613131294812 5.490810946638213 7.342445725188401
3148 -9.15724413254119 -1.5348485738471778 -0.4428039852370986
3341 7.875939034876044 5.582891020295283 8.03657463443345
177 -6.24629820256651 0.6210663832400938 -3.136127383800813
1272 5.221622521920407 -12.182208496419285 -2.3183091033903374
2503 11.004733100318694 -0.8436547942327903 3.235257649769083
1396 -2.1116858416653455 -3.2470906860236615 -11.193038664855822
2121 -1.9623694056988734 -18.54913100511357 14.123210674446616
1087 -10.01452390718743 6.296987545926226 -1.5666760932254011
3338 1.750870703611654 16.671947010154305 15.101894420642566
767 3.4551659774483796 -0.10749524561247578 -11.849543995236179
2050 10.672846315143984 6.32891353349751 -1.4985089772513562
3806 12.871831152927431 -5.2903774045582415 -18.67560164723008
339 -0.9719727846522461 2.7987150659244273 -0.802976558011239
2844 -1.5578830016657392 -0.9926584246109671 -5.187994676934662
2690 0.5233303461408364 -3.30402983277508 2.271493972078578
1077 -9.993817352716297 3.632062698981961 -1.5334703439923352
3624 -8.667949461852205 -1.88324739153115 -11.897326464729533
2077 14.06759689737091 8.114159579074878 -8.248228281371025
2688 22.487732451903778 1.1986820886562486 -17.199568072949237
1370 -14.49354961863349 7.622045321547735 1.3741292925260227
2191 0.7110938950223132 10.349940035890162 1.2554476120769302
3879 13.578797476293314 -28.466253276102236 9.261019962817105
2585 7.164292259887092 1.9551657443619175 -9.237422948771293
982 -7.743904100059403 8.292416745435359 -6.69827653133352
2657 -3.945004629620843 -6.507327836394007 9.887090375020229
448 -3.9705901082515966 -3.096412131133632 4.3404409072284516
4147 -17.66174376819282 10.915166528427648 27.425743440537826
1784 -2.4682225952936436 -15.49257610194799 29.585893668616308
3773 -3.035898739368194 6.341765721421754 7.925128466073426
649 -1.0271844746894088 3.127096889074037 -7.486154351417417
4305 5.044917351461986 6.258355826762284 -6.656381575063914
2408 -0.6701909598813561 -18.734140338112354 1.099999393264789
41 -1.1987204883752824 0.9683065865287566 1.6539078201693829
47 4.937731089415287 -1.2978890595433221 -1.0773887464297318
2863 7.771291107552971 9.613550293398749 16.244558035169657
377 1.2068406958319524 3.4607169588172098 -0.20370461995140154
2216 -19.476368305876033 6.605698644850363 0.3952018742377497
913 33.50748696970671 -13.635614546037402 1.7066946652630728
1905 2.855050964311615 3.1061713871171897 1.3238103475735377
1489 -3.0923597412612263 -21.864334723269803 -13.742268853324864
3437 -4.625447925278723 -17.560741297655465 -10.513392203806204
419 -2.796247056437793 -4.316823028173634 4.571077923263944
4097 7.595623505508056 5.843192917274681 -3.539745036747191
480 5.457852553361268 3.528257143840898 3.968113466853924
1294 -19.786564894244847 -2.676711502460268 4.483869144352887
3224 -27.394114120423385 6.485599978444451 -13.915533209218907
3037 -10.691520405170941 -5.908139043185574 0.2489593961479913
4218 -4.853649418226751 19.26409737377095 30.424917566382177
597 0.9057868546285214 -4.646648788874445 -0.025983790488403838
3865 -18.593072799282787 10.569307468881727 -11.071941777116983
3112 -13.986126840654089 -1.1268033988158135 -22.05488410717041
3320 -0.1590439301256 -1.9821409211067766 -6.890810276085247
3667 -2.694103731208251 -8.036520061517658 0.32410130906164103
1622 13.873886637337018 -22.312502082107223 -7.219920727201932
1545 3.93090808846699 5.41580292202813 -6.733088172021101
202 -9.620125458844306 2.6580433564413255 -0.9736329513576335
726 11.508946436108834 6.714023687156489 -3.9969561706594745
3307 -11.741162371484185 -3.2213106054521776 -16.76016811496728
493 2.566129674261286 6.218533526357128 1.2413864543238105
3507 -12.190482475454637 5.312000332371738 -14.464445942662172
3965 11.629872593468601 -3.303488618505633 12.514968750503439
2128 9.1337442116712 -5.03764134277675 1.5260334873753032
994 -11.0664722778291 -18.28586374310154 5.4141628026203525
1135 -8.019366118134212 33.92052153313771 1.2888065857769213
3611 1.043976804066973 -7.9590288428755445 -6.367292835781974
3083 14.41294222205593 12.566959082905237 2.0560056917308582
1285 -9.756150099791887 -2.568199062367647 -17.261581419031206
4096 -18.985595864129838 12.614449936401444 -8.309870926393927
3364 3.6717088899612325 0.6095859918489435 -21.808124298413784
1093 -8.602723614207816 4.659170626504367 -2.8936025201433977
1057 6.3989399165332514 9.339819069194649 -14.700597440908933
2884 0.3869577050911691 -13.904678336190795 11.173677692427205
61 -1.1427709477840575 -6.410023072326561 -5.417962736656652
2456 13.053476510486934 -3.953561991998985 -0.2679129162421927
1046 8.432896339896415 2.6540601913259603 2.120309243595143
3907 -11.548637487746896 4.763589018587976 -11.93314501104687
1422 -15.453200550639679 10.855164378464345 -0.8498794002559623
2666 7.699268802768332 17.239459103166414 9.655374497879079
2627 4.769744465388302 -0.06828144694735029 -16.19085880208556
3164 0.9840526896466881 -6.860251549808867 8.212757174925605
3480 -1.7553282862737303 1.2117930658905105 13.754272762421897
1376 13.057311216950177 20.793317134557842 -16.325630813927802
2537 -18.04618100782165 15.098800279222282 -12.229971881554972
320 1.311638727065944 -4.5934267790893095 -5.035818989254832
1320 4.44543164487998 -4.025021366757507 -4.000203386640807
971 2.3024683977425275 13.815468583308768 -10.312180457404224
35 0.632007638509967 -11.523485439906251 4.321471761363131
3445 5.334117059566893 -6.633759826591961 14.602176144355782
474 -0.3541008614858922 1.254456615478363 5.25457992355855
2262 -7.967847796838893 -0.8642361739992116 -22.262766807071866
4161 -10.365362993099003 -12.223315110885242 -0.9990854044012661
2053 12.808804526362561 23.69923760291666 6.578612401790152
2625 -0.15468896697316625 7.586981868991791 4.617451878892421
2272 -3.7865432230015945 5.2915671108415445 -1.7472627108976961
1953 6.404518740475423 12.770148069626824 -25.410754648289966
3996 -6.780764755517522 -13.48749068180023 4.0650437619173605
3675 -19.38032200460007 -2.155781528178044 3.652968008406138
2852 2.7996291509795506 -8.528912254021472 3.2978706211424256
1314 8.623111623357007 9.32855901918223 -3.3422581677986867
1326 -2.3417945673431393 -3.581760770605545 -4.641091080104966
1082 -1.675915421755503 -14.779280567677155 -20.96715900517854
2691 0.2653862678353025 10.453385521113981 3.6351948451494707
962 4.032018620715582 -10.057828006291636 4.212974091001858
2590 -5.271256875751489 5.733806847965471 -10.499869920795081
3188 -9.257110882163088 23.780773244546218 -3.8953573406349555
3369 -8.83081587869406 6.406354999813789 3.4399427324929466
1646 -9.189220601349904 9.2331256313196 20.397180068458834
2386 4.641902931112097 22.637535433364206 -2.0030598147610768
2397 21.66596404479339 -2.8138767676721077 11.770345786552395
3 -5.869423321988478 3.9989076396214127 -5.668852258623812
161 -9.258743430190382 -1.1340676671117569 1.9305776596432762
3968 19.870397726241674 -8.806431367722046 -19.57022746124444
764 -14.398696565261725 2.1232526484116168 -5.729397638528871
2965 -11.33253762763986 -18.11588671403554 -5.421586019359744
1408 -8.713309030852706 -2.0740438936396144 -2.7971391210823775
759 -7.408116432701323 3.2857633936919624 5.0925519046771175
3578 -6.193213100833094 3.901833059223899 5.995016833854049
1975 -0.5147586091432316 1.409511305522613 5.192825495944532
1753 -9.656789616415148 17.76707920018399 -12.98253183273771
1981 21.286614267437006 0.8802036288763675 -4.107043463882947
1374 20.79480095932857 -6.834043337055162 0.8804455320120377
4190 -8.349793317396047 -13.050122912861113 -7.698607178657354
2278 14.281328528505782 8.20993838757346 -19.47228113652671
25 4.592141810086847 6.515779921899063 3.180873328042003
2072 -12.369192132154206 0.1713444300482313 6.770142664467951
388 -6.064826704564405 8.304099767078938 8.479324434775355
1947 -1.8685924923960537 10.604218566459902 11.043713449586306
2827 -18.285392748552578 7.729628354065756 -5.207579249738984
121 8.413999570805762 2.737663368161224 -0.29089417653098704
1467 17.357962143680716 -22.904147806151695 13.210218122512297
1724 -9.03042586120074 9.379455719361953 1.2454522465276872
127 5.907054690416929 12.109581961401407 -5.977557720542481
421 -2.695463256950577 3.785579170285804 -5.1381321060135425
424 -1.0139267360058901 -1.7987568793988296 -4.01972973050911
2580 -5.193671689758226 -3.7295715701042975 2.6280789138597402
1167 -6.436454356750984 -4.733777141865295 -19.39859703712899
3875 -19.953925539431904 15.576109703135328 8.506572390174348
2357 25.083307572335766 -9.512284831433073 19.715951197915665
1880 15.328907624008327 5.9317408005508465 7.026534334878226
479 -5.615587050520176 3.353741499116221 4.449940672601547
113 -4.087675381641479 5.479136890269952 -5.966173606010796
3240 7.960839905721998 4.421447351940124 6.818519137048547
4120 15.979495881854675 13.22228396127803 11.100355167808749
68 4.64267674391747 -6.441135163065771 -9.173898802219263
3776 20.207601742732574 -2.584480034997648 14.41861301764093
3133 -9.652519861145988 4.756835404652237 24.217300527288867
3314 -3.2411452224285475 6.445819517801793 -9.471497989903789
1463 3.4206933360994682 -7.402344887461189 7.922365932804974
1552 6.995464826834873 24.223530064353152 4.145924356775077
1193 -19.117544131597175 3.7506139715414126 3.9338996303683254
586 1.2328993188815303 -7.603591906887528 -3.3312882461664763
3986 11.83245418166294 19.161151256959506 -1.7923849864451888
1085 14.229249563196479 -4.166787110017394 25.419972378769646
2729 26.730867448629322 2.7100704166759035 7.005234852841624
592 -1.388360186433306 4.261030366855017 -4.91543699864946
473 -1.8234201178882716 -8.952275897276397 9.484119800528223
1076 28.326427636682695 -7.819873411620435 -21.88422958249633
2618 1.9747484927995458 -11.757031424250261 -14.476206368881915
1277 -10.35839437828398 -18.745905904024237 -7.272289144472782
2825 30.940035634097868 1.8285990209329428 -4.844516463775529
3487 -9.124297092404213 -7.493121883863542 -8.316932710780632
347 -8.564054676284943 7.222899845725962 6.476006189573389
405 -1.0072579902047976 -4.627204875061957 -9.582519831027222
2375 3.2438502972117647 8.322666003303326 -4.584091170966451
3044 4.6937282519459735 -18.090071443253617 1.4511681472076419
3279 7.404312734341897 11.231149190853431 4.4172647590840635
3284 6.992683305009058 9.537659310268278 -7.54909604663651
4272 -16.48746262592333 -9.858190977538314 -1.796539255177026
1268 11.085947903442634 -4.225026850939545 2.431812164864553
3451 1.0485067777072659 -9.502223965002212 -6.207569959372484
977 17.371444445053577 8.828860556268955 0.42545179183500986
3106 5.347227866769803 11.985696623002921 20.000176577935704
2973 15.633361299067566 25.941372099149703 18.009470893851056
469 -1.1209190139104834 -2.384370923182141 3.2094181877386005
1502 -2.0157669883727105 1.2993467611207057 11.402004754546834
2134 -4.495371119354109 -7.279533513563209 -5.148861142761232
1946 -10.213438014461103 -3.27537519907216 20.312242694767107
354 1.2758431353317672 -3.471477287649999 4.9736416758638455
1777 4.6080150371659965 7.403901234793527 -5.2468756511483345
374 -8.89009471321547 -3.742538278297466 7.784444879161516
3815 9.970373431299562 -5.896494919582101 3.421495487773045
530 3.771564727504676 6.909431884090558 -4.944888439436538
2059 -8.026714258449125 2.450208360213404 -8.770720157723282
3347 0.15809418716563983 -1.8588554108402284 -4.252580700493384
3498 -3.894618441432861 1.9041419040461243 -1.3263258641111337
910 -0.7020813367682333 -5.824497332245976 -21.155806434667635
3102 3.747260391572905 -9.275152138126916 3.897543488743877
3540 5.317825497999763 -18.547437047969712 -0.6070130140941083
2202 -13.724252114467053 8.351844855648691 11.885274967728225
3140 1.7661549806730426 -15.939152830795102 13.202327724168667
3976 16.462886087256713 13.398807412537863 7.205958714346083
789 3.192069064496848 3.0439092392227094 -4.239629238934836
4082 6.763502253747651 0.843352374495041 -10.309717913330735
2287 -0.4582343620922365 3.6889312547190554 14.912484391890613
317 -2.7549834710317453 -1.3745140175706096 -5.535560759593555
979 27.410121173555865 -3.4685504526712303 -21.065654618556277
4103 -8.162717272783114 31.35588113398384 6.610837423302855
415 -4.121484352332041 -3.157787543511202 7.557141375699936
2595 6.885116560465061 3.776604180784575 11.033966908415799
3010 3.726388115633775 -6.953727899997139 -3.071261658807214
731 2.647149065627316 1.6492446920991495 4.9161336299835465
3309 -11.404898216062534 6.78946203586467 -25.2872257305822
2681 4.370725188449186 30.64168133896115 7.610489367526684
4054 6.498729470589659 0.7305348470567402 -28.40463894990714
264 2.494270338933031 -8.397452897229195 -6.886586797479257
1220 -1.5403360385756864 -25.41866974878974 20.59196354703884
2154 8.942523846338252 -24.42146743583251 -18.271609071549324
3705 12.163278242075824 0.40009415309370966 17.701911240355173
1048 4.7920430144350705 -18.791090144825965 22.08061013781458
3884 28.13679371079512 -21.54471548626231 -16.32858534805015
104 -5.124359957063114 8.128197541937412 -5.902238346768677
2834 11.492390001506488 -5.173629015340363 16.795358261729515
2933 2.717090295385818 26.99447761278465 4.76741000859914
396 5.605839664761545 7.461991750901736 4.31496190581242
590 -4.360086570911958 -0.11862054568824623 5.937529376619472
1931 14.694159129823666 -1.6586540421336997 -1.8808289770944266
1433 -5.510109960063819 0.975032990401158 -8.14305555586547
1231 -3.338561142760568 0.6703725379832296 -2.8981581199454323
1410 -9.585452526574954 -8.524626911799531 3.7154485348633584
535 1.1692088908672365 3.0964803490082344 11.680202520061968
1250 5.486818476889385 -6.576533255692533 15.086772153318703
1273 23.976439461635742 -8.598051203552457 12.295785403667072
3215 -3.914621703949405 -5.968922262615523 -0.7206555902034784
3850 9.582048503420676 -6.499648123877359 4.670167889275766
239 5.651744700236818 7.915228178313439 -1.0581678879945793
1183 -16.855750196418672 8.233582724532305 2.9209032817085334
1319 0.14929044414609866 17.665464744015306 18.675550368658648
4220 12.406176410362837 -11.16852283663539 -2.6815795934098
1224 -19.62998327607911 31.82301916972312 21.746646871312585
3064 0.5470092668596642 0.7451641635725904 5.851639874972867
850 5.4462930892196315 -3.192992108351479 0.10479506974805959
3406 -5.610249975213702 6.599257196152412 16.36608968472188
737 -1.5367356075486258 4.149729148154196 3.265234737028474
1228 -14.44792587549064 -5.2931731744087545 20.182685197846517
3151 -0.2738252104484657 -6.066422817717064 2.711717629183765
1655 2.4781164195912275 4.322711720008855 1.4225388503486025
4012 9.68700886075347 -14.812240183066681 -3.043633888009832
4076 -10.49659377843712 5.240249490881117 -11.886614709939133
333 5.397375150425943 4.341372561021065 0.2314085458929388
2061 -5.380351360883197 6.171962932537853 6.970873909937363
1653 8.378179796358301 6.9557509104911945 21.020258493806306
1601 5.930727400614422 -1.0703488667635546 0.8324125498581275
2194 5.193047484690316 6.956050321256266 -12.00714293087444
1766 15.941500804946356 -3.2845185804444044 -25.580499812389526
2946 -6.025878828145805 -28.050168946669952 -10.776018098132996
2654 0.8546809103763681 15.439038298725517 -18.28093420980984
2636 15.672411236947234 -14.485434357007536 -5.276968219130952
2913 20.667583795909422 0.8224242326250223 12.648583260747666
3662 -5.720156501609112 2.0689881050367367 6.648476136775659
3146 2.8001141179778943 -3.4469829898850355 0.13919281590354154
1342 1.948113336969837 7.716115887469114 -14.063413604052693
2248 -10.760934258292048 -6.218129728366183 22.591686149861022
251 -9.47331078262382 1.7431275461895617 0.8508286725394042
3180 -4.000506488065353 -9.254630937580737 -7.809666132593892
2715 6.22516396966828 8.543500386661712 5.558841388355759
343 -4.122079465012371 -1.5095645867437628 -0.5284938077510765
1735 3.0605086847658254 -4.743457005965011 -10.297304685362182
4108 12.241184705146804 11.063888335758785 9.873684481554942
1521 -7.0799768165096815 13.48261129329073 9.366265809067425
3392 -9.169157210544057 -10.216704371083884 -2.813902362472729
4061 5.847006768530395 -18.368411362464066 13.381891685628446
3569 -13.231549603575251 6.462508125724057 18.79214588432372
2264 2.6110609427703513 19.945886459984997 -5.007282168801476
327 4.115371653690272 0.42975470297162327 -5.156078247410979
2269 -4.044220156361655 -0.168942979862174 1.0321587943448975
44 1.9531989188484116 -4.514357160232852 -12.002977832236878
2103 10.003100609217963 2.19307955061697 16.81050813488445
2676 -4.82157886036482 4.191867252826716 2.7157021013219502
1836 -10.0986920406995 11.74069477422618 -10.238498632122678
2717 -4.52637716871485 -3.1130417590007324 -20.663714977001582
3645 14.658863900358902 -15.459778327350909 8.04412937227845
4215 -16.852907590771345 -9.21316016759474 17.905107854541914
2908 -4.801100362631054 -11.338582535988632 5.366446613838311
1221 -12.772025092549338 -14.330259226323914 -11.948815773574202
4092 15.48565485007749 8.91117417714615 13.40603457804397
1130 -8.640186294303035 21.368403648388863 -7.69607365631378
2034 20.732673088263763 4.083877885109314 7.270642734762403
3615 23.62029185928853 18.203319551571663 1.8544154540685465
1259 4.3518168703685465 17.456230491898083 -9.472779856661138
1935 -14.758928136471914 3.3548048830204302 -5.563632804278848
3564 14.450733017810592 5.993995189736603 16.89196245538406
243 -2.9287072926348205 1.0114958383273172 1.4421541067261063
433 -3.943158102754026 -4.60769066731197 -2.9871757736706357
2435 -16.10441284167244 -11.960448834281735 -1.9469581154422848
2339 2.4406853830125326 -12.082055517431476 -8.958531529599872
2597 11.55709558771564 -13.473812268483783 -3.178805941012396
2788 10.7243475932817 5.029250205618267 -4.068530389190407
1775 1.2876877708516075 -8.747218212610335 9.549685182900507
2778 -12.158914794332892 0.8429212324170454 20.463005714865
1503 -26.286388836326516 -17.23865762972329 4.182875467669907
59 -6.414307419441166 0.14445659925812052 1.5269845691610437
4090 -1.8912570563007058 -13.362774999823182 8.716648080799674
3859 21.643320056187555 25.157158400200707 11.938627912838083
4042 7.192392892027145 0.17159400889655876 13.015432670388792
2385 7.73111458419677 3.8555411389635466 -10.512420291152543
4087 -4.529532553607237 2.985747886906125 -10.983214036480636
2961 -19.00769415026451 23.74688992123533 -15.603589878581765
3360 1.8265337211791393 8.343228735514673 -4.970377348509326
4200 8.386471810386508 2.7433085142901885 10.410309894844804
3057 17.952142458989194 1.0373468928833631 13.828638993072861
379 4.52657291466879 -1.8737430992090331 -15.141694239844048
1520 -0.3501972438355679 1.4033130856942053 2.5059135811104185
663 8.425415669729393 0.6385748548966198 -2.2317974811992465
3493 4.235874995754183 4.207814429519385 20.948609620201612
3351 6.287432763202783 2.6780114778861006 -7.511679598527054
3568 -2.8351160997341536 -1.9491061872869773 0.15234591814389023
3760 3.218759709445475 14.690720338571307 -8.334750608997673
2179 -11.312913883876215 -9.171930349292262 8.288467487141755
1866 2.6364492739756025 13.334485568119383 -8.649770599524743
3609 5.6901661189386346 7.925868380277852 14.779082365621376
3259 9.417366750436736 8.608713017044588 -6.5045574305375125
3116 13.24851282229792 0.9631127619497957 13.34171452498655
1821 0.8948256498842022 9.942466429606666 -22.002464104979712
1716 6.437769915758571 -6.444639569861605 -25.238403531570658
3556 -23.74300671131568 11.53533361887884 0.4636662446090655
3121 -9.723528944076858 12.01109332143534 -15.696695819035043
2784 -1.2473954893593626 18.60129428506033 -4.743978207267965
706 3.5250207651349754 1.797209721928785 0.4994731358754513
1989 -23.78401272016189 13.051479316722974 -15.796362296706514
3901 8.729444118846567 -13.818483156452407 1.9292261647975595
876 10.431692092228444 5.619666530047512 -21.168020433630392
387 0.6329095078495508 -1.6745824333114183 -9.005005532108035
2116 22.339502607460915 -8.757795344342252 10.604856887484502
879 3.4002920212171737 -17.260537120944953 3.1201848820996556
423 -0.4991051538794922 -3.19043061857902 5.776502874242023
2167 2.3680059775394473 -2.470152208779508 17.902858594998513
2861 5.400457464890199 11.181334201376789 -5.734420217774669
293 -7.281581742819669 2.0934328734747583 6.065553266222569
304 -0.512954603716314 3.1677067880632404 -10.72821660789695
3888 2.350235503761264 1.5296279638185886 -0.7223451018383745
526 2.2298864162808227 -3.257142567745593 1.3291973183680983
166 0.7185088184674941 0.13545098029222088 0.7045655295747256
2588 9.061008960621828 10.174066878156143 -2.6448683546992178
4114 -0.7302619352578438 -19.279433797772707 -16.66802246619488
3961 -12.883309990678557 12.579634183042987 9.615934401504092
2915 19.24692093335758 -0.3635359331482629 -3.4314923566418924
1919 25.21273072915345 7.904844438656002 0.9925826590810849
704 2.661595946103973 3.67577739902139 -4.072690531983335
3999 -7.492756881946105 2.226612256612098 11.90317441564526
3642 1.3749939177360684 16.880429728272453 11.756530831453802
3885 2.9661746527359587 -9.659067773892339 10.589583600602914
3594 -6.9505583934417166 10.423157260492486 -26.46195623800518
3281 -0.897340604173688 -1.9382821900653648 8.369010520163027
1493 -15.67593335373891 -7.963330491422812 4.841616625916919
4094 -2.803266977811525 -13.291622758791048 -8.41780109419409
2980 -13.095715123592495 -0.889660760173056 -6.228093528259223
1138 2.018085435952811 -11.735675625264333 19.288820008674975
1687 4.3914042545986804 -12.244431694487156 5.032718520411222
1936 -11.385158904871595 20.406874692765797 11.631263055802101
571 2.137187978626863 -7.976094982673875 -9.346582892920818
340 -0.4259415100391608 -4.562062540291425 -4.280143608805184
2771 0.46655068241283343 -7.95585933300372 -3.0033634280678196
2563 14.003745589998813 10.143004026309514 14.027351959470916
4286 -2.8034364123790447 -14.10852512338808 -13.419178214602983
2806 25.80191214870867 -15.88637289267649 -5.215687810916502
804 -0.43934472828726884 -2.55390040058763 -2.967136623642929
652 0.14012271950210095 -1.3877424182040352 -1.1766515300150906
2932 -27.563761792504295 -6.345078209990035 -1.1356275915913854
4189 -8.626910694805135 7.789167189848863 4.911640847735471
2401 12.040310126387379 -1.9103983571580254 -4.939179876680181
2575 -5.726303250398198 13.61358265500577 -2.266864892046476
3864 18.442883512639582 -9.184024574388985 -0.7737444316057424
1665 -16.85155428964705 -2.85782738892371 28.52675435427738
1971 5.011507837284848 8.403793842052272 -6.103706288630007
2873 8.537679879854482 5.253741691167565 -11.97367503591808
3231 3.5124878976245766 6.959425286629767 -14.776995134536897
3178 1.4967059865436028 -9.277738608864928 -12.078698942598113
401 -2.9827427097789734 -0.46745652211302674 3.4668977029203485
905 -22.500074669215156 10.957601371370542 -3.3530027925391934
2644 -5.439573335634081 7.5266335202195895 -10.937092559429823
2290 12.531973063804985 1.5307987075819627 -2.801128248328292
2279 19.000063603605476 20.82574686986078 -4.296180450227949
3881 14.847884470932176 -7.930397185688 11.62141036846901
4111 -20.829809380458684 19.785162915149435 7.265780339170634
2012 -14.969692676522044 -20.41710060918692 -4.794894800828664
2209 -9.516855284822427 -6.516504258969006 19.002581384622264
392 -6.354453104778052 4.558769501861533 -13.501079368055914
253 9.077273561180434 2.2821015566958627 -4.744556216699847
3770 -8.083866612975452 20.030456685656258 1.706016654094855
66 -2.0636609807484305 -3.983604878756053 10.613171835554871
2572 -11.055048150599283 12.135700168397507 -0.5960657017975184
3942 21.37039505677208 3.4646943501847782 -4.548842012317275
3607 14.64390801434124 -2.0714973410972566 -5.411267084503517
3802 7.191882814687146 0.39795717820775567 2.3234428685903703
3105 -9.821641848323265 -7.0651094870064535 -14.343058275789451
3803 -1.0748279898342574 -31.55711080390339 1.0775000253853582
2865 7.132503283349644 -14.66152757331974 0.15548176247999035
779 4.39277112700765 3.3841757735377356 -2.773243351606194
3114 29.050413013916643 -11.232459723937577 1.924974118215913
3331 -3.1392930622485444 16.373556864836463 12.956747232201492
3747 9.633673994022685 2.0308206507548654 -3.969841143635912
3824 -18.286342309818817 -21.729501493158285 15.144128518887864
2176 -12.138715424767673 -9.135893072822922 14.514626344626329
3086 -6.269370113116465 -14.559060984390364 2.4407960688344708
3831 -8.82581687178852 -7.446847025024683 -12.094681677743559
4204 5.324613386307582 12.739103537893781 6.854807780138981
227 -0.8379408108013532 0.4950230302471938 4.97818539906758
147 12.197191818530417 -7.283475877912218 4.0927289680453915
1081 1.6779238119488116 -1.0230565474627134 -1.4550315738840336
1036 10.158216756041062 -4.733594584910141 -2.102053411075484
2110 -6.521368283957837 23.08335670681435 -10.041016899067065
3150 19.179600392138408 13.992157061500034 -10.882775656762501
1058 -6.011498462762067 -2.2040157307650277 -8.125412183727446
3122 4.884039018650402 5.920273792211598 2.424373282744633
3425 6.303193702252241 -16.592734319595273 -12.64952340305879
1291 -4.492557442633483 1.2513539417026809 17.16077815497612
2617 -21.44503031440388 -6.010770667388509 -3.1567464631668027
3964 -7.806516039930283 -6.608598662098133 -22.951256443091484
690 -3.0518794682964536 2.362887277909146 11.291608545426826
3518 -2.9304719692894534 -3.3035785911691424 -9.605792550092293
3483 -2.292931309824522 -5.8236616285765805 -1.044391179958936
1819 1.4416429006023843 24.742126177354013 -17.240061841175038
1424 -6.435546039213053 -5.462170567072351 8.929351983727262
4043 10.862634728685093 -13.84152053535738 6.671508414836063
1863 0.8492204466138639 -4.8741446220936115 -7.756397747141686
3596 -27.808214256274805 -1.3261075060264769 4.613015525968757
3196 -12.767171287843734 6.751661631195528 -5.1121758533469945
2606 -12.314780160440456 33.53715074992846 20.242290347837677
1107 -20.42578410791751 -0.29376608871811144 3.2893707832005705
1001 4.060339754160401 31.975452965466612 -4.068095187540766
2281 1.6312014284947507 -15.178572331566977 -7.805422432713866
4066 -13.509498452198148 16.878576006996184 -5.757507692764409
1940 -12.431782565429918 -1.0588528146333651 29.44764509352625
3474 14.779612266109655 10.016502428822763 -22.203304971546114
2074 -3.5995749097326137 -9.780547650996022 9.171786645906087
2521 9.402440169403691 6.464185262216022 -27.336528705522706
2607 13.170340707774898 -16.287488927518474 -5.88742598923271
711 -1.3652758764225676 -1.2982446311674258 2.0528033298775643
88 -2.8369188894522286 11.009532258755153 -8.343306407169559
3389 7.902743301553476 17.397841416934 14.866618586901703
3695 6.979321700730524 -3.777177201098616 4.897057446628998
3363 -3.5054332135218345 -2.0706240404535827 -16.927383527742393
200 1.1421167728596036 -4.898547014250412 -7.662813800658367
2941 7.973093529388833 1.8044708685921222 18.66754464908571
2598 -13.434326387455918 6.214592819144408 10.555097236867041
3333 -9.225238859331904 17.883633637121417 -26.493451803511675
1013 18.316274272870743 -6.704222724880233 -8.679577688776634
2084 11.642840687430887 -11.668245606814398 -2.543201119440857
710 -4.673348479150087 -2.9865514116368654 -7.727962835357134
874 2.742694775986012 -12.269922323906545 -22.6800748267192
1657 11.512990286012585 -10.5116260931237 17.731998955824675
4158 1.4048325362912975 -1.2256147287092727 -5.818194661189953
1230 -18.84212718775666 -12.330978445238594 20.16412721524581
2816 -2.9630615473123436 6.480009900312247 12.494011280250403
3853 -9.374500261369322 6.734231972711426 21.57336780759725
2092 15.4375791508287 9.549687418820849 -13.326106935596663
3017 3.857903626729264 -9.345462077681505 9.488920839838695
3995 12.087650039792722 3.4097175238743507 8.806382550576746
630 2.1432266635938007 -2.146387485398757 1.9703512419024476
2335 -10.296589691965238 2.6881871516047084 11.470641034005022
1131 -1.722169740904912 -29.337831731284023 -5.84569189907847
1109 -9.2826378474408 1.2100102267948285 9.996950331974716
3009 -19.201892379916934 17.622597764324645 3.634753995649293
3659 1.6790752025666034 9.783807526748914 -5.32864046805888
3821 -12.195718106557418 -3.3923683712584065 10.13574439339435
1175 -5.738370306079117 15.608645422995478 6.185989590848398
3400 -4.569775754612642 -0.3942316922767423 -9.223211600197814
2982 -7.1989807763228635 -16.245999418471815 -6.678296092859567
1912 -18.9463164166224 -4.336513963515642 -11.736955134979322
2054 11.207986365196243 -19.675202553986185 -26.206223719728758
801 -0.9915387034935668 -6.396559523671325 -0.5699971136884232
854 -7.025028265672632 0.04489976491488313 -0.6399074477490037
2959 13.574962090353438 13.18531948494217 -1.1482953558271474
1882 -24.267577812024665 0.25035355953845484 -10.357346697935213
4241 17.13501802079907 8.97234858244484 0.9914302942289095
3621 -6.679784107998244 -0.11939233976890161 -18.136915494067825
2407 -2.015165374073268 8.575675820585229 -0.2274595392913144
1416 5.377126300191111 8.245805145170433 8.013090448404483
3685 -6.812140845220391 7.767974435304028 -9.601410516566293
2984 11.693533284893622 21.344221635823082 -7.364486968108342
2662 15.451484306590936 -1.363480672102573 -1.0380926955974659
3100 -16.21232342317673 -16.891988799855795 -2.312097248968169
3378 -14.631694436935033 -0.7808531944418564 -14.449788351925818
903 -6.617699280115461 7.5167960192439285 33.49711382492966
3482 -1.4841865311667 -6.501225377910207 -8.129314820686172
3041 5.619835387680025 -6.08992659562011 1.0628169048798368
1028 -9.848068000697955 -13.145749352975798 -12.60336162754839
3882 -4.337162602814451 -3.8494598962137947 -12.699317584901348
4035 -17.936599546207198 15.622183261506366 3.4918772220242187
1765 16.410343238445552 11.081802749922836 8.125003395691095
1631 7.646127261631487 6.875010580681913 -3.102508765196781
3669 13.295849201332127 2.5340651899385 -19.40189783288793
851 -5.029890479006103 -4.00671203376799 -2.3939732164716863
1160 -21.236713484138175 16.218041390469395 14.420542342741669
656 -0.6943508241708679 4.365378688674155 2.333338058849546
3404 0.685057585613983 -16.722979387823482 -11.768485850945021
2945 -30.820892160111768 0.21416042038500313 0.5297123212275507
4010 -0.2579663687778853 5.479073463671993 3.623861019755083
3205 5.952768096743356 -0.013581821063609435 0.4615643425852664
3822 -0.6110007493612354 15.66567394573475 -2.1742293248147315
3306 -13.667814779642734 -21.008693370744496 -2.0014360992185383
2732 -10.886678052523441 -21.35229273598891 4.794504543253217
2180 -6.075745382426931 3.9368576021116546 7.814961930747385
872 2.5891218628561172 6.729131280986394 7.659853906272233
2614 0.6089394642988011 -12.781707997480298 -1.4443366452522655
2832 4.826452669528199 -10.460373599074595 -6.969837667741399
2323 -8.6587243565448 7.511417831940524 17.676122017932585
629 -0.8419917171234993 -2.0434404620613464 1.4211129085987504
477 0.2867947357074438 -6.705982918654806 2.3992654642384252
2282 7.417414871678722 -3.940590136890277 -19.34154937700291
371 3.4306643079025467 5.913388311668247 7.142233813926998
1154 6.478759602424216 -13.591541853518967 -14.323327534352023
868 5.824976160638151 13.511948199664323 19.30066116352415
3972 5.345822215603846 3.330040632094748 1.808016177793063
1712 -10.290988927508065 -9.452679233637019 19.53061876243414
1362 6.943631312646741 2.690455446486209 -26.817231459956226
2016 -3.358823430843989 -10.612224627858101 -3.045680746124442
1973 -12.401383260174125 -1.3002824510667574 8.150076229056868
2422 -12.706826257871686 -2.8660430827837486 -7.48924346671323
1918 -0.5560787260155352 -6.974440220326759 -3.1232008924376267
158 -6.132792903148057 -1.9051276082913011 11.73981706213107
2453 -6.039283155837724 -9.06709796428255 -0.9112278317281307
712 -3.8957236820803156 -6.175155333187977 -4.207389911497418
1754 -6.406486943231591 19.602944497557687 20.632592927150853
3677 -3.0737652733985077 -6.359001198625512 -9.936202700240758
2909 -1.9372983864490334 -17.66449540679646 8.850955080701512
3533 1.5363528783915288 -10.452092379051242 29.245248149492078
983 6.720376165336503 -0.28749346556657085 9.530136265153773
4093 -1.755400177441787 -8.745076744208896 1.052802937929146
3003 -25.746454803079214 1.0936840142770872 -10.596021584906843
2399 3.452058388382571 3.2809500409464762 -8.496744942226952
1476 11.289586623553996 -10.191311341550296 14.029692169109449
116 0.5577267756455276 5.66636889397881 1.5440800150761518
3377 13.523629482355991 -23.18796118123218 -14.011060348293476
413 -2.3846860224066533 -6.079209153418836 -2.0268522770410238
1650 -8.935354890983767 13.638521708661223 -14.789682158323702
2739 -2.1850972962240043 5.959930117086743 -8.719343870201639
512 -6.9484048400159 5.590872000150223 8.563547632700434
1208 5.595079738513583 -4.445154793769025 -9.763089877035972
1944 -3.492160064384406 8.70926932305473 -28.430800669264677
2413 2.0974009463874395 -9.174398295237907 6.766732577185507
2914 -7.168776017962882 2.206218113194588 2.8245234554767973
3357 10.054971300827917 8.061980065205553 24.951015756521254
1690 -4.619795947032647 -23.16523179778162 -4.537670756564951
892 -5.429744954702796 -9.802339712232829 -4.609542445458322
1830 -13.647569470140054 12.564656162795156 -8.534131995030668
3278 17.339112709882766 -12.559967999309201 8.34392248300634
2178 3.8990418797578035 20.592547399791908 6.252999966885096
667 7.044004967817541 -2.5144447690941716 -7.229986880515411
3706 27.16394696777505 -6.310646962106692 1.2189782213834135
2260 -11.459941687784777 11.682606661597683 4.190233573129978
2108 18.475987889345948 7.858050506219486 0.749831824227809
3236 -13.583052740567624 6.918079684377041 4.790495941483779
3891 18.898512054160626 -12.25310472534578 -0.5319308586168634
173 2.0757041277550767 2.169677607117844 -5.346089962107925
341 6.090548026186822 -6.329279903432787 6.479228406848692
1851 -15.426780165070445 5.304899582024941 9.603563698595778
3823 -13.52558202393316 -2.67347878124247 5.1470592611082004
2668 11.993783239334176 -9.01803533380913 2.660655073507024
2384 18.261920152937442 -23.36779207493535 -13.670623045009002
1349 -21.21114787735514 -9.724374387576045 -12.066631767371732
490 -1.6080734363983524 -0.5124612179303945 7.905135435681833
4080 -2.526821173575487 -15.220329381268645 -9.100547712937153
2489 -7.668233784390494 2.2300155895563636 13.274856074007914
3421 -3.381238032757247 -18.446512404905825 -0.9011232298637735
2546 -3.0044064159545276 -16.285705456782562 -11.208842431526223
992 -4.729992353389044 -5.158452357637974 -3.514293005858387
1453 -3.0688979073647733 10.96146906350895 -4.359798490122148
2490 18.085620723647377 -18.70995936638134 -6.639547732526577
233 1.91472658539185 -0.3974658758933174 7.550900194180937
3396 7.62498957016554 13.595702536224055 -5.649166788558145
3067 9.303702522865029 -13.134577870543893 19.0316010583116
951 -11.329148352899532 -5.5340673542273935 -7.418446296030189
2547 1.0698725461664602 2.508574405780235 -11.528958647510603
3158 -24.585733802567752 -16.07773545761359 -1.7338932955174473
666 -1.5928300715413468 1.3199333560851214 -0.14691453520485934
3589 -4.77913378773638 -15.15444457656471 -5.972921621639855
2745 17.247721205796413 -16.595756924740062 3.3840922574474708
1490 9.654752615114871 15.971642048257964 -5.784406549052007
463 4.90300362222726 0.861839066142815 -9.321688596015033
3795 -12.885325619843575 -15.373742766568924 15.248902546064587
1663 -0.9832765010574703 3.2263182693458297 1.9794018361537233
732 5.823867051811945 2.2775269393080584 1.0363505052669466
1020 -13.436792252258343 -8.875356293418648 -14.638555131970516
2019 13.079875341066568 -22.621955336740196 9.178138043357771
3641 -4.179984391607815 3.4076442653983463 -16.525654376349294
2021 -8.412940614870125 -18.045002263985335 -7.809866034148364
257 7.890789434545494 -7.619878400133999 -0.5684815898049782
1452 6.7965393481639245 1.8393229265822695 19.845361095428128
1098 -19.14097403093851 -17.097830413478516 -2.012781152603402
250 -1.814218136689081 -0.14320355002856835 5.412686092246426
287 3.9090608795133743 3.5060144168088243 -3.227162995093699
4071 -9.886763480511433 2.436608911479647 -3.22637911047885
1115 -16.35371589512506 -6.903769260375293 -7.352943264977547
3249 -25.87325131051669 2.320571504948159 -0.2908600647301341
1204 -6.17118746220159 8.647751382926822 -11.534267535936637
3060 -18.92036521012296 -0.9732998659480838 -8.80698563468454
1327 5.972487386938609 -20.78475166539716 -17.728859869191595
1219 10.982712216242346 -8.407455487071951 5.2592238037439785
816 9.82505884813512 -2.280228461119188 -1.0344890691647985
1769 15.469745672660267 7.5976177399329 -9.628289216950538
4067 14.839478892713675 1.8268505899881582 -15.782597753766035
1206 1.0669409123724438 7.873337021249673 -22.8501983863731
2314 -6.344916783107609 2.307733844356386 9.947176292499519
745 -5.964400496570521 -3.7210629619522333 1.5709497094058562
2429 4.834496541538361 -2.179348521763921 3.61753376404117
1986 12.166924147310134 21.08400162272269 16.41817782962933
3201 10.203888816821522 6.664681090614813 -4.460661302611857
3994 5.234916065632225 11.23791066662521 -1.0619912045027742
3514 -4.335824021985441 16.015349069766454 -8.165401800342616
4257 -4.439342019597454 13.443729493427362 -4.503184433553829
295 1.2665169511515963 1.776855536692029 -9.930678586947746
1360 -9.188837656007077 9.22348443424607 6.27034052124933
619 -3.5969860297646323 -1.438902984544863 0.4487685175585347
1797 1.8890005708052116 -9.345788733083513 -4.684184721567046
955 7.27654803836264 -12.652812711388801 -9.798130707822775
10 -2.359540519869866 2.3603798952318837 -6.201264541122802
2817 8.089757852314472 3.921462989019163 4.574147311493944
781 -6.625996266838503 1.8157270831339218 -5.393835121504333
714 -11.866199909199608 0.009209961698130417 1.2339318461834388
2725 -12.338497866282932 2.1272843416030724 2.775377840205982
3673 12.80521256753721 23.54698934105374 3.2618591087062643
1283 -6.481243689305965 11.156308031426875 20.60903152638836
2502 -9.505263999867982 -0.5510391651158584 -11.704319261783997
3132 6.142880719719706 5.953998608601013 5.185542712034606
3094 13.1683939501703 8.470455349444087 -13.03963369851685
1126 5.584570523185095 13.443157270073819 4.046135541062463
697 7.173023225328594 -1.2281948939840877 8.914808142495918
1236 24.100097284786514 1.26216280818993 -1.644587605323956
2326 -5.870367511709821 6.818544963066506 -11.662857409000887
2189 19.05332355919643 -6.802168771473066 -8.503138635087655
1139 11.401574469654484 20.312725588357164 -3.9336855291809543
2044 6.335867984569331 -8.01686481713989 4.157752379366063
135 1.6527265575341274 11.284480326925717 1.8887755883873831
79 5.449697156536999 -10.099741898815466 -9.077181561795804
3078 -20.624743927278292 4.039313277792988 5.397643644248975
117 -0.37283015085057447 2.2295503763135 9.724825274785571
1654 18.958411024670998 4.057485859824095 4.26385623493977
840 -5.879328168701358 -1.3601819032989189 -2.9765635716467567
511 -4.474973318064149 -8.557309142964757 -6.38284493289678
2634 10.539698445624959 6.703335842655512 0.5027120457670761
3649 2.456796066306418 4.002247111765999 1.0802144235009048
15 2.7337967421814406 5.314556491542598 -0.024729011710300435
2568 2.27655322385967 7.401285506245582 -7.850840373146214
43 -8.359015608441467 -3.880773529538964 0.24215333946573128
6 -9.207598036589491 8.242081338154238 1.711814181626559
1960 -4.859342282539039 3.0002493929888927 -14.247045887516594
520 0.5093427820431412 8.717897821649835 -2.0017279523315548
1949 1.4370753654438657 -6.893413927969442 3.5629933889410297
3597 -22.749091103275962 -0.683198717047581 -3.535460220223253
3444 18.95260198292259 3.6928221814498623 11.90728736679316
3501 -7.918278483440441 1.0515475436360462 7.3406120989419215
4154 18.547335923506083 2.9752589677677372 -6.882931506523325
1407 10.79583623820204 -6.660424941826107 -5.462001233730201
2685 -20.043138067893175 -9.690059052057533 1.8462841669444472
2559 -4.804396950052311 1.572367229428889 16.639126590720167
1104 -17.875106781530224 11.14785491530629 1.382987994138215
1599 14.355134184181278 -14.883537681397142 -12.564442873018203
1078 -9.035013525508264 -0.6184349996024511 -9.66337841035419
958 7.1501084948462825 -0.8396649995371943 -10.631353446304994
3021 -17.70943190939923 -13.350688979551164 18.443959707216678
216 3.506819929225287 -1.2813958636620857 7.928479969614205
1094 -2.167255492046428 -18.099214129882448 4.7250770282128025
956 11.905905361772653 1.2323327161584408 -6.9314527688181675
2776 13.115146421189136 5.242752037878888 19.618270604888373
262 0.828440696015767 -0.729497118567338 0.6238099774125566
2215 10.413578889101593 -20.259033301431717 -4.3750171935453634
1662 17.828100721157952 3.619450468364259 26.435261195932693
2600 -16.50811862683036 16.626960024973148 -4.130909860940396
2478 -17.49158894398838 -8.820784956548072 -7.074840622080768
2028 -11.782168839101093 11.102943776073095 -1.9081516619620762
1357 -0.3668515073269984 10.162436209817526 18.082881450203825
2075 3.5380097060643863 -5.083767146612822 0.9303211910204886
4039 -23.477851199047045 10.987498217167778 1.4345846168178118
289 1.5789744808825659 6.124649938535761 3.5226534947073738
1068 7.5431499670180004 -1.873536174211587 -4.849773037270573
615 7.003184700124295 -4.398779524253571 -7.6068940190259235
2 -7.76724271055199 0.1384770101075572 0.7861299621528043
792 -1.8873953117845517 -1.8965038612609852 -9.138824376690044
2705 15.422424810074311 -5.3527797554201815 -18.304470719456724
2786 -20.18604432008453 -20.104661271002303 -12.305057726560058
2417 10.87221918813483 6.804080612827714 8.093669282781162
3897 -4.579779667305551 -3.2683041182057 -0.06653419587245192
4280 -2.4002417466628705 11.268265842826478 1.315390808020799
2665 2.974254729177438 -7.346821810810003 0.8619971225136575
1518 -11.201864498446295 5.820375264131611 -6.374823725688735
468 -4.855447197915406 0.12415020509494375 -6.716629664902802
929 0.25672864409299145 15.01717402333984 -7.2750111204125645
4222 12.680024718107344 1.0713981134615727 -0.42684816448907803
2320 3.483887587638049 -17.51337580442369 -0.4766242439655868
786 7.433015322382628 3.861392787261103 2.650697571166966
1636 0.8931700602194069 -5.0212962233940965 -2.011056022263753
2728 5.415865619029691 12.147701820429937 -19.378289809622228
1838 -13.602448536104804 6.91675766176047 8.964884398972524
3018 -1.2084001795705828 -10.788640294342674 -6.549013915388128
648 -2.3917579862792415 0.8279400064833549 0.6836887893532648
3375 4.5115126182968615 -7.620250111805251 10.556661311676711
356 8.282374652665718 2.075983174905385 1.782468029805488
553 8.862496086403505 -1.6667993119970226 6.337459371444339
3880 -4.171560988744416 37.369934242958664 -9.189012928289277
4057 5.156516804709485 12.23832820432537 5.644277587305155
1041 -20.50049653983165 7.663855039699165 -18.348014099830543
3678 2.106453273706797 -5.778231239557851 -8.38828244405342
435 5.785193664259035 3.573149703453006 -1.266133231209658
390 -10.571481004360653 3.2302071061565893 -1.3378816454753277
4117 -3.698173588858243 18.550421175634714 0.5337239402778725
231 -4.095585869947007 6.319985423098636 0.77085686586967
2807 -0.5228581646173381 -13.578570932491095 -2.4074881516745887
2714 -7.034692314062768 1.4252632895549395 11.63296665947547
3080 -14.834269479189665 15.462367417923893 -1.4039100550177794
2129 -21.11802078333018 8.733049099319881 -1.626873162885079
1305 -8.305890065383903 -17.88609973288511 -1.7963313397473726
2338 -16.73285292617606 -3.156811987102091 -3.84209933070905
65 14.242706217149776 -3.887657124855799 -0.5314600146929395
1962 -5.578838738905068 -4.953348383719828 18.769003284951232
99 2.5832913354604865 -0.5730557980668695 -2.477797296260621
4265 20.99633237175808 -13.141463101479976 14.251475021424394
3870 2.5215901129287803 -1.7742313271800676 -2.301951083077352
367 -4.300760552604384 -0.40211953823395535 -3.0610608668294526
2754 14.037492185790457 -1.582514624872871 7.867663099527436
310 1.6598678814128405 1.952528047585152 -0.46107907571428874
3909 -15.916976796485985 -6.92041397140754 -9.227461842610573
957 22.2633157725702 -7.399795813066348 -15.970782072480079
1318 -18.895411446794995 2.3597689310418213 14.816194954024095
1112 16.011703777229098 4.423689911767395 -8.079491709835507
3751 5.000845836501276 14.041065201923965 9.773893798622856
201 -6.565139666747077 3.561596870852456 5.814865431721826
3664 -2.7408997493248943 11.063754587872028 8.119491666623317
1247 3.178403612182705 6.601879494963962 -3.565331523625907
129 -3.435888188686656 1.8164180546748838 2.590049826820561
3276 -5.1310188451200665 -17.73500385998882 -3.4764109884100765
2699 -3.824815054654075 -14.336730186483805 -3.2420567958724313
3334 -11.597421973653267 -5.587010234248791 8.16619500792834
178 10.908278866641881 -5.753125822613058 -0.442701850083729
3736 4.223511441376625 0.9340940541359837 0.07015166037610014
2141 -2.450438222647651 5.04198907960055 -14.928028230960013
1789 -3.0296409926433476 -23.754624332440574 -8.240082891162869
3068 -26.58304359654562 -2.3977684601427187 23.466334758912115
748 5.158654557088629 1.585312356818156 -1.9720839369064658
2850 -17.251876746751392 -6.703271662532747 7.688699145031782
1542 0.026194591627616857 -0.5644119933917856 -20.80103151245772
1674 0.8873570991117836 6.06870939671218 -2.793536123364772
4266 6.3879640772802135 6.579493287238909 -19.69111115534398
1479 -4.292918264014977 -18.873758757566563 -1.4625898668201103
3154 -19.406415157104433 12.798936624206059 11.856638061233541
3987 -14.714980079106482 -10.858610147003402 -8.89814554711806
1356 -3.993831885772698 -22.834516752884877 20.6798690013574
809 3.493292445796391 -2.709715518532889 -6.003631707520292
1645 15.94102215449391 13.573799303404916 16.195476736703686
1249 -6.963731107246382 -8.491962641710979 8.431222042609924
647 -6.499684937622134 -3.303976789754671 -2.7314024240286634
2727 12.2405345218856 -9.922008690371738 -3.5014414675961043
1559 -9.29918444012684 19.282053639363443 10.71411947913355
1839 -2.105880730982283 18.10065402296292 -12.349564825036378
70 2.2881825058261698 -4.006962247070768 5.197871600090544
3039 -26.284954988412533 -3.1718380652192857 -12.69695962156889
1803 -14.102302584474637 -23.135187516950367 34.1480499969755
2702 -2.6265446342903607 2.439449707800834 0.3052034839014485
1867 -17.075194764422882 -14.679521658731774 8.124556683375356
4298 -0.6621498959007339 2.376279478464517 8.456613369313349
3591 -8.308251724914008 8.516839106217025 25.680482546397933
643 3.1583633611711184 -0.4666981666194309 9.843838207657987
3967 -23.003627346227493 3.700551213212241 8.50236650971679
3223 -3.0638685556485137 3.76642926239526 -10.129118524426321
3600 -5.191848141723482 16.641497821977673 4.5243854140944695
2024 6.536453731295521 -14.501104545444507 -15.581983184229433
40 -2.4221870394617375 -2.6530667570185313 13.132710045842304
2143 1.240686603424497 6.895058454102675 0.8672693750472675
2366 -0.3671853822807817 0.5810723085803297 -4.641858685171774
3793 -29.718025705606795 -15.765293141716585 -16.74114045809712
686 -3.7358300893406478 2.7925267455051364 6.274102601337748
1450 -7.221261035270554 -13.376683797730706 15.513326787263159
1519 -9.169331135133755 3.3484399622954744 -16.802510364408572
1748 25.66956517695212 20.071808181632413 -0.903935089457736
991 -3.4613058800743794 -2.404532165821748 -10.827927648068203
2380 -4.023440620987684 -3.557647039611845 39.64396287478092
607 7.89986396718792 -3.787848414301976 4.047114732323333
3099 -11.195373431868463 1.353027154132723 14.28848468079222
2402 1.6221151504766256 -16.93846562278544 -19.544042266369566
633 3.5469154943322527 0.18419184044409892 1.9327007533323775
221 -0.27023861208258354 7.6045986451260905 -10.824313697681585
2459 -16.07329432013621 1.386439553880081 30.517888481227477
4131 -8.201548307544808 -20.275950599524574 32.04020773346952
3365 -23.41938683581657 -5.625025391209076 12.975550953522657
3552 -8.641115760480728 24.15616901973469 -18.967933311950762
756 -7.162985483685257 10.45545110254841 4.773274751598194
2755 -5.072650713591643 -7.626794155816929 0.7844708642648535
947 4.361669474193005 -10.11547095184178 -14.421455086805997
3927 8.77068277570885 -7.893604125137797 6.769678714450182
1938 1.7428166935531617 -8.3015642735488 -16.656926265932317
2203 2.6217937381805374 30.776471615408084 8.819033680028825
362 1.87943013947676 -1.7070957467810879 -5.257721163745038
2099 -8.833880812297675 8.544871158382065 -7.968902041414055
84 -3.814928708612802 6.516806068124866 5.462850216061459
3163 -24.031709754317824 7.242122919593378 -25.673390018709977
2136 -5.543669338672106 3.4433222214088817 10.665032663376163
2378 -1.8041282292633123 -1.3560592628311459 10.210836363007678
2721 -14.097467852112409 0.026822753316444636 -13.250856467605782
560 -14.189334200590187 -3.876135244276815 3.839336688296251
3628 1.9291459172340881 9.579324050298471 28.96876784872182
3826 4.490904156151212 8.24512448386546 -5.203634789206315
1252 2.5793376939847557 2.2522642224377187 -4.629096925711736
2229 21.40971725051069 -18.73711463604043 -14.223085284032884
2720 -6.636811274710928 -20.80178797541745 5.849567023387894
2027 0.374878887480878 -17.130180879661967 5.310269409778211
2780 -2.4296235204069383 -4.2853148582967355 -3.077082850976295
3684 3.6514335755597322 9.366986456447526 16.840238542308782
1162 -5.746643667090405 10.097116699584795 -0.8514475418051386
3711 -5.810463936218613 -25.37107957442669 2.6227894260576443
861 0.20301058373286995 -9.341782012966245 1.0816366154430834
3109 11.693479907640251 0.8910143018398133 25.62107472063238
1328 -2.5770623573822324 -8.061777763450426 10.820702500319266
3911 -12.216567472765572 11.257860417810678 -7.730589938791572
503 -9.92113975296737 -0.9811885727503838 -2.1802639052801935
1434 -12.474095863378508 -18.611924468762254 -11.850194666262281
3546 -0.5390802240134981 -12.564842693004154 -14.25174918119985
2496 -2.941450987995022 15.907907227505863 -36.498859096498954
996 -32.22479387095801 1.2071185666140172 -10.713644287579848
2369 -2.3556152978103864 13.282876093850483 -11.987009312455113
2969 -0.7325510130389262 9.294199564493132 -7.1888087820208675
2307 -8.695007525250379 12.873212186076058 -6.10000854305571
1624 -6.793315316908716 -7.2748222685107855 -10.616567083362138
2499 34.01945264876134 21.51244762587521 -6.165236084925689
476 0.7086370706535955 -6.839668586153732 1.7170467775983247
538 -6.856237094580993 4.026969144894253 5.114134564210785
1857 -25.610372478366475 -12.512067397795942 -4.5100791881085875
3938 -4.410079997081205 -12.676193605883117 5.394380346801332
3781 7.484585724181725 4.633150763317589 -14.210498361012515
3268 -2.2189330799073526 -12.031282513409634 -14.194365642925387
1845 -24.45675346736073 -23.43490047736353 -0.6190995400498197
741 -0.8452635483499673 9.622401408806825 1.1584311617795726
2312 -7.165971097719508 9.098154472411998 -4.974360859980913
4044 5.108152043036351 0.47003246534476006 18.979941358580867
1576 -9.664031969878575 -2.528855844206519 10.244449671210457
189 0.9645217019109437 0.4070476099656779 -3.8639321477436326
2130 -22.00499870232735 -8.836113760933303 6.345333261312593
1708 10.926160521133735 -15.488948258640605 -4.278284347222379
865 4.391095340908329 5.708961461508616 1.488977997721372
1557 11.378330789274003 -10.74388844137706 1.2771908417271636
4291 10.446575161380762 0.5032194196506882 14.076096407161808
4079 -4.137885579748647 21.438732195692744 3.012586858528642
3958 1.2692910204066763 16.3127464574582 -4.3389733726589
2364 -14.013037492684477 -4.111880037154323 1.8813390224394129
1313 21.10575686895862 4.690748699375532 0.9726324214999181
2451 -0.5737617877661574 3.514250888660076 23.617914706639862
2972 -3.496886706745149 10.22317251804412 3.0841924151879576
2294 26.01573222785835 -1.9608464999137485 6.335147695965012
246 -3.164128609634282 -1.0692863384530766 2.4049855528682076
961 0.020120387590173514 5.024253038723428 -13.584618450403132
2498 -13.716917989118663 2.9996776783056616 -21.03397273994999
507 -7.117021464202534 6.7766979891700485 7.270552487332908
2135 -3.2008764049687146 -2.531210952492438 24.136294658291256
3957 2.3472744923279807 -7.225126778222104 11.767623297162435
3920 12.327676178065724 -11.91598273017418 -10.049108448824034
3922 -1.039079192735834 13.814285867417574 -0.2762001254014437
852 6.928991637817643 -11.400842450945474 -3.1115715780788578
788 -0.3255277230534752 5.5917788916336235 -2.6491629425754355
2519 -5.97115034549697 -1.6311175783965113 10.016383063566144
2032 -0.8582782106438872 -2.899991350341818 -12.254224217956173
1611 9.94681543207617 12.074426040668799 -16.257543578533074
2602 9.013936948073184 -7.639137622936345 -9.463546670813189
3147 -9.144208187356579 -18.975334499554467 -6.665732989260055
1311 -3.715070319215117 -1.5976277491673765 2.851851493153095
1994 -3.484128072437958 -4.835101300839073 0.7506282349077877
859 -0.038023435731463065 -5.151765483176892 -6.7801071609520465
808 -8.509271019105865 -6.078303068351138 1.8664818787904796
1581 -13.17010074229918 -6.599920281110757 8.43721991634145
3753 -5.491270929606082 23.977446023042784 8.556373546488658
3181 6.717994357877781 21.03299665385982 -0.8983377278952184
3005 -3.721471916700711 -15.73197463352494 -5.963308012199882
2414 30.6294969002557 12.999463738604101 19.262086807768647
2146 -0.5328337389894361 3.6347916521996106 -18.912064652390335
603 -10.154816838554844 -5.538941828846106 1.7496982095957598
2049 -3.9777766903535734 4.397963177872846 2.6095678834538982
3288 5.381364967381379 6.108698543910206 7.660782676387986
3319 -2.3852302986474334 -21.762973251334124 3.065261585120085
3749 -12.518786935317461 -20.342653974082943 6.161707693230283
557 0.2265813973171162 14.079665347844289 0.14344226234724416
3065 4.676364284506832 2.973946242800913 -8.50076246822449
2197 5.9044969856191365 1.9272339956192248 -3.855570237898264
2373 8.726491020611578 -10.65892194986889 1.4122075858563947
3266 -2.9309618996416495 12.235904286296522 -17.646660139314168
380 -0.15561279117538915 7.081787219139021 7.360757909436335
671 0.8498011338882498 -7.268394554195582 1.128710211105215
2152 14.953530000690694 0.930901395163124 -14.889920904375506
1495 -3.312684922121138 -5.863011391893437 -12.932253101135112
2632 1.9686250506594298 -5.651547267081367 -9.993501170009509
3904 -18.754907841785833 -6.1637838991445255 2.293485594673427
237 -4.457213689844255 -1.1151460233449642 6.436443543776042
855 3.780645257576294 -0.7571533117293767 6.321125483017682
2660 -5.32984439335196 -2.2316574311953326 -12.846391402242514
3696 -16.26718458025781 1.1524873340461208 1.0465064346523398
2733 -10.623202221114244 2.9982148970952807 28.310169448373372
3988 -10.256878370751231 4.5565771735024905 14.33789043717362
2800 -0.9502479472056684 -5.453669579615124 2.899581832765026
948 8.246562205214094 -10.483484257052508 11.933253288820334
2763 -11.477180007239701 7.431468450804662 -13.79932744909394
810 6.132156561832121 2.8856844982282612 -2.1345973977020387
1358 -14.175920776774753 -6.209964376519519 -12.248753510244086
627 -2.870280181477525 2.306443928126024 -7.831881167388197
650 11.249240221669785 -6.497518723260194 -3.593936617774689
2773 -8.189995467995553 -25.105209071982724 5.677272263113394
3810 6.230706521865934 3.561075657800134 4.648964353718523
4263 9.176503066971232 -10.060668069403327 -11.425169352553226
2759 -8.991477000805556 3.480575875080645 19.49508677723079
3271 8.417181862026084 -4.879533139321823 -0.021296639557756798
3688 23.544335251846118 -13.911208835698924 11.656395766074212
1616 -4.145330845128434 1.709161447805909 -2.838843300083572
3469 -10.776357965437281 -4.030123117351721 -6.7608666001751105
4256 -6.540195578098523 18.771511303100084 -3.509850470528165
3643 -3.0197049585651854 -5.037921297816562 -15.096574875147395
306 1.5744009790495868 6.468020841155848 -1.3323242083933455
2898 3.2815024525251597 11.207531603778166 -15.859793522877302
2872 -19.828993730696002 -30.725772704414595 3.4475474011337544
3172 8.197916356587877 -9.3689160909964 -14.858882411021368
2188 -18.195514180121457 -9.121004010170097 -5.946460554264059
3130 5.34880740508065 -1.1605118282218596 -1.1575402778815673
299 -0.006928632637720249 -2.299062157234499 8.634513159852899
2996 13.438121582741605 -16.160609981131074 21.84480362380111
183 2.1028007226380265 0.30246519744073846 2.6888620652473056
2434 18.61232812654076 6.276409914312836 7.909461323110631
815 1.123663034809997 1.9085075206608546 -10.826367689122925
2930 -16.52395392382362 10.050696320225045 -6.852055544548311
2038 9.759550354797051 -1.0841568990071064 6.19080727529569
52 -3.025672522152715 1.3288096752426444 -2.224969120789595
2448 1.5390417934337366 -11.764111162983049 -4.172301892014561
3031 -4.092076879111406 3.589247436316586 10.116558319827815
925 1.4387720401703867 -25.821107114487745 -7.372648802322517
3838 1.1572540894140926 -7.971655818442519 12.474266341778357
4188 5.071604728331227 8.15134650983092 -13.921537842164266
1144 25.998837934408638 5.653205768579194 28.217379931485144
2506 -17.035842135687243 3.957856537596478 5.4025521510145635
884 13.892488552855355 -10.73766324473684 -11.849481512105378
3478 2.1272029076695724 -17.18210597996443 -13.20932703971405
1202 -2.6331473625158086 19.522633460099563 6.188331624195679
1910 -27.71765665561205 16.46814113485614 11.647140563004562
2843 -2.0936072591788606 18.501254814605733 2.55970159710636
2218 -20.78789704060547 -20.294955776003867 20.872228902367006
344 0.8045574725695454 -1.797879857973899 3.2160440622525464
1843 12.892575135890027 -3.8798974336141057 -6.208696218792722
1302 8.071322381191612 2.2687304148821594 -18.17534833668836
2345 1.4393457832401184 -15.920102264369387 -0.37553888267517277
2765 -25.985139552669295 2.559653742734865 -16.606179609357365
3948 -15.77296420519465 -2.45935288010027 4.8488779759223615
3519 -9.019722721313496 -6.7103993983873735 -5.349247227450866
2087 12.578750782616845 2.309226965383577 -4.248043483848934
4314 -4.018851764811246 3.4678255301877843 -7.182613337716535
2030 -11.077351000348601 2.9485253096109396 14.296760859357617
3581 -23.633821718319027 -27.995593075472765 9.390153046419787
4119 13.431393812818575 -4.737311058959588 14.248386162897887
2370 -8.72226194633501 14.632019392878886 13.82290997542608
2495 2.885246034794181 6.216058894789848 7.567960225888106
1660 10.382724062048748 -3.814450648962922 12.050719163199052
3752 -5.060805759155586 12.867308977037684 -7.377648041254755
297 2.2835727565562673 -5.077697992671002 0.7870336552463533
1111 15.172758519165699 -8.099761895997284 -11.193127690546254
3095 1.0232663616769027 -10.747639522370775 3.327116354695978
822 6.614295281276276 -1.0539226812853273 2.2086109910318417
4102 16.077201822099727 -1.6588559931656837 4.503088364790711
2741 22.906626445246637 -12.186647791690898 -21.91317518365233
3528 -23.2966105645222 3.921106909252345 11.156378838915058
2550 -6.855035526685174 -2.4015790002583195 1.1926338709329438
154 -0.5331591959605034 3.7169830479565 -6.321715233986619
2010 -0.8808596564071374 1.43943255786687 2.031333253823332
1494 -6.16151030050623 4.049418636381105 -8.47690404296131
3571 3.8569612682169505 -2.877472835146666 -16.212662274510997
3693 -3.0741677822484337 4.053312444910102 5.2596013722360695
2793 -14.013785186612743 -15.117689828217497 12.6704017338079
1067 0.8989954009883179 5.558524258787276 -27.25015549807421
4134 -5.9713965989423885 16.101928002405856 7.751685810683844
3656 5.716820933767186 5.474349226050865 -3.350285345491992
1381 1.6475496946352057 -15.753814320226123 0.6923372509399396
3050 3.138946340205315 8.00751851717064 14.777552398188337
1226 -5.80414978562955 -20.466284515953273 -8.539688106413777
1618 -9.624411038955234 -2.153311901933162 4.6292853040289295
204 5.9950822379705215 0.347698696712046 4.899865619520822
1672 2.4430302601547043 -1.628062560242693 17.63072030018411
3260 -23.161819269111575 9.395716384481975 17.037589203028176
827 -1.5062259628941055 4.230415333517277 0.5895889379654647
1134 -16.041208399718627 1.8682798528902271 -3.3845180675521904
187 2.784506210181882 7.274839667694031 -3.2304313246325034
355 6.759640682389084 1.8583131093930496 -4.2394992728299545
400 0.3651725728796424 2.4216747688143703 10.460775372326653
2551 14.455315406370564 -6.34258684032555 0.930481382906039
3832 9.725462906925962 -8.025229355919706 3.6229493810775457
2756 -9.297209960140796 -1.1212954954528833 -17.210689639124436
1290 21.563237737714736 12.250177859840544 -11.329949751747288
1157 9.89735428852164 -15.23945170564442 -1.0502226297874677
914 9.475309113337383 -13.127274897082104 10.99384521765012
1829 -9.590602681890712 11.793784372169009 2.4854679407624594
1929 6.397896647643333 10.36538156837172 17.3131087641275
3894 11.83509831192606 -3.5543737842576473 -0.3633185062340662
242 4.798944009248464 -5.102460470245288 -9.372193883217246
1466 -17.317168342377418 -11.87195136724162 19.10313504054124
902 0.0703597027882986 -0.26351506950057846 -5.999553101296029
2306 -8.626514582909696 -1.010937456251219 -1.016976313744882
1246 -7.165233270319881 -19.518499432241633 -9.222320628515222
3587 -2.5468948788733976 3.3398303481766534 5.419434185957562
720 -1.3283232478702531 -5.946851689964304 -3.4418480220883336
1025 -9.316306496097802 16.278962091540457 17.531889252993167
1513 1.7999256785386202 5.001964307733442 8.906639948163457
2247 1.9860428537136876 -10.135086212119912 0.37492015831043213
114 2.736038011954723 0.06123300373610967 -2.150028306408784
1682 -13.147992929465875 10.317248744522027 -8.557419207333762
3291 0.2510496181101685 11.679710295352056 -7.67962368508239
3457 -7.964332967421195 8.773196303317524 9.930344977913638
3983 6.063326971076469 -1.6178539977176583 -18.670267862787977
100 0.5703325661323883 10.868503840248826 1.52522027863513
3566 22.74902180784623 -3.73418496110843 -3.867522234777832
2225 16.339927863789104 12.05647786373944 14.010247048784992
778 -8.161480779636943 -1.5105333554403633 7.401267674866099
2744 9.550319045034183 21.283574410095923 -1.1871711576416624
351 -2.995763987641215 -0.32592742423026455 -0.020991208170909065
563 -5.5562442310571045 -0.9939729078067495 -2.9219685225117598
2258 -17.728561757866707 8.817648602431666 16.517647061857232
3811 6.567575296059383 3.4386076653108875 -1.2416792662309246
2599 28.138799515248078 -0.18712549466640696 -1.6934737563109064
2236 9.820470796240611 21.20087361575227 4.360450457008651
1168 -12.810940395799976 -0.3034093882550668 3.152337542427884
3836 5.075524092238686 -2.4385314765067743 -5.244576370146759
2224 8.719567128302009 14.64112991371664 -0.08604199628525416
583 -0.04953164988510569 -7.034066503241463 -1.1476628046035195
2751 -6.365757277091863 11.76611103411811 8.743601551748844
2997 -3.3398138592892073 -8.58735621530864 -29.325922387871813
3084 -0.3199909645188397 -10.859266899544865 20.62508362547827
3593 5.36074633491326 -11.245071245462675 16.801886349333806
501 4.136484594233807 2.429915243349282 1.296254523169037
3020 -3.2107933499826133 15.836217935265891 -1.8003902357094712
4130 -19.56021310946143 13.115252843959654 2.9373642062197405
2476 -16.696536751399215 -4.715456687396695 -8.29623561940929
2251 0.7136659285924052 -4.0235876143551526 0.9167411221487711
2768 11.130380344717878 -2.279664353784748 11.723537893723096
1621 -10.241118435778906 0.27563135095556995 11.83429434338026
752 1.9465078638854136 -0.4853802546257133 2.1328965094847625
3918 -13.955843533229487 -14.940948226878017 1.77985117627015
3892 1.6593966879462687 9.50791999592057 11.626486806669327
1833 -4.01801289798659 5.348152134895198 -3.008618354327745
241 0.23945316834696662 2.723638787835268 9.174467053808236
2359 19.855349406703734 18.214897819208517 -23.663822019421108
322 1.4887335309169962 1.4914451372321882 -7.313474677171579
1388 2.0891995080165846 7.021281169578452 -4.746785100916818
3267 9.641051418948319 -2.0990800470056863 3.5112583452315755
3033 -29.301741682876166 26.939732770038887 13.037000351660451
1306 2.943707459214887 -16.535528311346066 -8.274077538971918
2810 5.113851588296843 -21.162117813629038 -11.827522552577662
1207 18.09650689161482 -3.7678285162258405 -22.549462086631983
3422 11.72688103414233 -4.495161948809702 -23.727199251463546
2522 -2.463923278459828 3.7957912009617063 1.2148423498629117
3076 -0.6079209449364484 10.137814162863194 2.6139348621678495
4031 4.733152617714002 9.971536440130112 10.707151248552314
4070 -9.879501373709195 2.745876583017341 -10.773739331607901
3842 -0.2145929299127537 -2.946234502988317 -11.085099518024839
2943 15.531574603222388 -10.26247558723705 -8.225598618386686
1185 1.481806734463151 0.19050000458194008 26.91402247267054
69 5.661628404588464 -3.6154494614670067 -6.142885931792924
105 -3.774534082978114 -2.448909886417694 -9.489708399236044
3381 -7.371941281431334 -17.909968108076523 17.813864914858236
4106 -23.90883685678902 -10.02020100598826 21.255479652423944
386 8.298156423226803 -6.170422728819689 4.5749622884860255
3082 -2.9998300383728607 4.9616681106566505 4.427266891564821
1791 15.87105990958841 -19.621353913462464 -5.832141628533351
4267 20.753177085680584 16.122450635893717 -6.416936873501448
3805 -0.130362231496564 0.27236204135978187 0.4348682095016478
4088 -1.459711381379196 1.616196462033509 0.8306701377323693
3716 -18.508934771668006 -16.57996075664269 -2.509663572986178
2736 -2.9083465838100135 -17.66212119679874 -4.435709259342214
3889 -8.47286029486904 7.861190353283193 8.522005931005168
3926 -4.712202587023008 13.004287228779644 -3.394145710426332
2145 8.844338507932378 21.890903963608945 -5.834369055212947
1959 13.321961758087339 -1.5956993286487513 8.508381959251286
555 3.794998093819153 -9.225212508873412 -1.853058756218569
3473 0.08833045116587955 -3.5511721840960297 10.556141507644124
2610 -1.7827135240842367 -0.2732000277564369 12.554913029014905
708 -3.9061799462360227 0.8909927519124894 5.344154035220796
2161 -7.852722274236235 2.214141245113471 -2.6104845743960285
1816 4.361310485948716 5.645732358690265 -25.33804902980293
3606 -0.24541364252903639 -15.437002566276123 -0.062314159200624004
180 -2.365428249238876 3.8383682588269448 -10.212293470813297
2948 -4.052209902401257 14.351661062675088 5.471427033529951
723 -5.28052678025357 -7.463168439588174 2.532575089408021
3159 -2.03266651688244 7.266735122068522 6.072938622178512
2063 12.803073147486208 -12.071900944189574 12.15657688193476
1106 -6.892743821529177 -3.920592574072803 -12.101925429009173
870 14.911516841735894 0.2473641739007582 4.203965742217346
843 3.4158688715543364 -5.26726296633082 14.533612526201543
523 5.104759507702454 -4.95350323952739 1.4791047662347496
3935 2.876972070933151 -2.7376839329988045 12.853510563586863
635 9.868987040201763 -4.089349670093061 -3.750384228534919
3866 16.279571657017378 2.3243725775369435 9.36546529866931
3973 -3.113754387645523 -17.4031691300125 5.37573280497296
707 -14.916746068044732 -1.9223297617851682 -3.5973379581694345
1892 -3.614931807230173 -0.4107941020608708 -3.2423562944038826
1582 -11.427113904866435 -1.21986931193172 -21.955171076376466
2022 4.319014672132421 27.41812240390146 9.480491781144904
4056 8.00039015451546 -4.899276643392302 -8.55249099537137
1176 6.276476908463453 0.9214143495630995 -21.548800273851302
2200 -13.954681286285854 12.417673610524387 -3.8217273695298477
1051 8.654111431873797 -29.436113670539957 -1.9277864329601107
795 -3.5651855699054296 0.9868883517019895 1.5951403114246698
3303 5.346613858134333 0.8090580731624856 16.205362311103823
3025 -17.716840975452463 -6.243581339770827 19.440651525600735
3366 -3.3748769125027342 1.8867489038483172 -13.516652030548537
966 4.975777319595988 -0.6616825639202792 7.166815348403087
4074 5.689076398552258 1.7945769721616167 5.895423064816923
1282 -3.7008944619212647 -1.1947474780732368 -8.31321954570575
2334 1.3753392038790135 13.984960394600886 -29.18140752985027
1117 5.213795497314874 4.3141312560368466 13.518199668450992
3165 15.269836601522561 13.810470459087158 4.353056186970785
2564 -14.985289371486122 0.18780685454759652 -10.328179506477166
1995 5.094653829765404 7.332242858483533 -12.407897731586116
3699 -2.2553959167289026 8.937191386277197 9.320811768501882
3511 -15.673129806668566 5.471041964179934 42.863243517919805
1460 -0.6563133125242114 21.177606842682493 12.398441810021717
2444 -22.931009120426598 -6.257242551590141 10.01028736365317
2198 -13.503395520545856 5.983422415719707 0.20547497895192024
2462 11.526119859395148 -6.8371822041479335 -29.57022798992934
922 13.156709871048001 14.30926930035558 19.038042331616722
4084 10.2290939197779 -8.757068359267198 -1.8106046810689478
3052 -8.801300272597084 -0.8649397158364656 8.837489534889647
3873 13.19997669943841 -4.559296432319288 -4.2901491367483695
509 -4.672890705790201 1.1632980270662692 -2.6185883100714418
693 3.2021929761624377 -10.513842246770498 3.139284877645142
2956 13.556859682103626 3.245448234691834 -2.918255352001881
3393 8.898894443842929 17.567011896932847 -10.490418035854743
562 0.30782849702119824 -2.112185050216648 11.942219777408841
2419 13.557997026219608 -19.05656281079052 15.933675628194809
1985 -2.725505925696719 -6.167782834953531 14.0343908068656
3242 16.274552876715564 -5.610879174227804 23.23369211644678
1998 21.14028758064096 28.651074982357027 0.19616033776666086
713 2.4227070125635586 0.5258059726485443 4.65989679887791
4303 9.811575597530998 -17.35438353315297 2.5993335440160346
2529 -19.21116917381954 -12.074980999972814 -10.281208387146322
1181 -2.350054940137703 -0.515924253180342 2.251980645189578
3066 14.321246074664874 7.388971798191702 -15.749671241822426
2328 -8.958435689974472 -25.400130935735167 2.684878027638861
1881 8.079453986649833 23.819483480331602 -9.732571371430062
2935 0.3670763182854406 -5.644157187632291 4.2066485404725755
2532 -2.0759579645990005 8.29866526224824 24.12090661286212
4136 -10.935427668413979 -8.317667347071634 -2.547327091786356
785 0.8288093253162924 1.065453387736133 1.3112312759642182
2591 14.784422834027081 1.0249910710861376 3.0241871648301575
3185 -6.749346645225666 -0.04139610961183256 -23.507160863944296
3443 -11.258669323886451 -11.473548768282063 13.447918723947883
1108 9.327264463871257 12.399595696846333 1.2504235270821071
2046 24.627313216833834 -3.430885090471607 -15.632891792032455
3394 9.97032518716249 16.685720874238516 -15.66863102482212
3754 4.754472444349705 -9.506375799695672 3.024241776278983
3160 -0.9541459231968366 17.836767106955588 16.12380933062703
3251 -13.273920313853475 -0.6923959382868262 -11.338650135731863
2902 24.367779293122386 4.297917422995066 -13.932638427361697
3934 -13.18901623532809 15.614507076118436 0.6442339968789582
2428 -2.5256704623904125 -22.356398704407844 21.061364090260565
1234 9.072525089400425 -2.7588277905931076 4.9336444561707085
4077 -11.944253858716884 -7.635336632822588 -18.500751775206776
893 12.338089977096447 -1.0852356482431045 -3.6842165975328456
1243 5.199483988426568 8.26421147627512 10.282704895572147
3029 9.230984150748057 -9.79036857452607 4.502574639672968
1371 4.0679360952823735 4.463764018171997 -3.817806473520023
2633 -0.05528472871832149 10.285648478091032 -11.430851906689592
950 -18.22250419911968 -10.339304121265815 -15.995979700567279
4049 -3.7268256918447014 -11.67156265907892 5.552131706104108
2747 29.606909518544036 9.192570144407734 -8.664789194626477
883 -13.5657107024286 14.906778806215925 -7.353236854962623
2979 -8.798601678175189 -9.66236922375815 3.949446323681932
1705 9.472563256731414 8.787724148586998 7.615630532152171
3475 -10.696289401942195 -17.167661649029405 -12.179920526862619
172 -3.95206667078856 0.8118926374644205 0.2978624553613118
755 -1.3616167670164285 -0.6271721725736219 -3.0632723715328227
1928 21.4813348082079 -24.10085985887882 -15.707299548457161
2779 23.3375887862674 5.6418492572034715 -16.92252938785875
1544 3.371417692453794 17.94246227316879 -2.6215484007422774
1079 12.311399804406827 -18.281832575129183 0.14086735248770013
2561 -9.281951179755419 -0.6670456268201869 7.852730478139474
2461 -2.60269150224217 -1.4240642626368656 11.099916886316239
3939 14.231622660510036 -8.032689683578543 -5.3237605248895665
2394 -3.6512022766130205 12.093264073677021 23.299471857913268
3434 6.221125106487056 -13.979581132751061 7.701169490417842
651 -6.321942642823344 -2.8409178951982397 0.6481204879826146
3373 -2.08309723305188 -36.41822287964995 -2.1111952297127314
2501 4.000767561602048 -16.02011145520326 0.8790215411831857
525 -8.995765450356597 2.6006354948080563 -6.598656820160109
1086 -10.042701064690096 -5.497811282739488 6.673857278162206
174 7.914914375980399 -3.8620839907103526 -8.195975898322287
3966 -7.308941277359305 -0.5309318503457404 6.679357224094441
1895 19.86412356435918 -10.918391737808735 5.912074555174594
1983 6.855088837676872 -2.9071519885713584 7.649669583176048
2041 0.9970969416820499 0.21177446395361954 -18.50044923381451
3680 22.606469006155248 1.9457748494877303 -11.693182625280265
13 -4.23762640363845 -4.738119655991808 -11.50990927909836
3030 9.396316325922472 -7.26572531830166 14.068121177563077
761 -3.9488899988756145 -1.4068064307025576 0.2955355002909725
1814 15.155943499284154 21.41904965114943 -6.668680697416286
2261 -1.3338067235995341 14.898368842021453 -9.089509914413561
4124 15.041471635442782 7.044472749402691 6.212105683405941
450 0.4533806396799885 -1.2840948199103353 3.771327324149266
353 -1.133671761903012 -3.1119850361986536 -1.9863089817427118
505 -6.929116809381113 -10.04927219554206 7.387560111439903
369 -1.4077449219751268 -0.5584671736224216 3.983660963885218
1296 8.553727215486541 -8.29221631721956 4.904731420583737
1565 3.747293232881966 -10.851273328031837 -9.590885404392989
2616 -3.1041366065714215 -13.848129764655825 6.432747913161521
1568 -28.522385116063358 -3.3359414413282855 -4.892825365909593
3768 -0.6065478396807406 1.863117811573369 -1.0845272717113437
77 -5.85745026118159 -1.522484828831481 4.437694699618103
2256 10.014137883122665 -14.51012329954702 -12.462725838494237
3285 8.856354645792436 -3.0779411967857473 -5.760303795731112
1649 17.34954351876988 -11.049659939229013 3.989999220884157
4233 -7.440567786598646 0.7084957196479569 -28.40192387385547
385 4.673802346574836 7.079979334801733 2.0516061009366404
2604 -4.7473738081429016 -17.269322547101638 -2.0011485199709966
1344 -1.8425911847775494 11.699704698278648 -0.5958483969621116
1158 5.056843751613392 19.129747374789 -16.43189616912512
998 1.8770751603202114 6.851226113631465 8.67999667108929
3586 19.517736478679304 -5.089067067633815 -1.8208379918508424
3526 10.077280203020583 -19.23856322600897 6.268079699500615
1178 -10.215895839080435 13.459246935840318 14.344402493684028
3510 -6.638041004746987 -17.470147141611676 12.273143935684473
1473 9.323792080257883 -1.9718946505929007 -25.850424879746022
681 -2.819072402831824 3.214917241821892 0.22861033596059085
2119 1.326034006875371 10.820317403614258 -3.6817800026585976
3989 -18.588153573259795 1.6627543663980666 -22.412079344619336
2905 1.3284411685633677 2.5137966030735446 -21.155649984533937
1564 -1.9439494729241342 -7.0409072260511305 13.543508417313193
3197 -14.004468107470137 -32.890758908351756 -27.01948229155489
2766 5.050647969348136 4.2246735422607555 -5.868672836664502
2986 -4.179784374993004 7.480545254967604 11.989214074961572
2163 7.840845714931081 -7.167609948230201 -35.13211258369415
2508 -15.46531037579101 -14.295092665596915 23.488943583867467
675 0.9871634557189923 -3.848861494503289 -8.333566980009913
365 0.29787053444432016 -2.639324570727086 2.4376519258151825
118 -12.57632322462848 -4.329852732464443 7.654425896886607
1498 -0.8080878250875546 5.77619042098424 1.7950586014852237
3401 -15.145409309355657 2.2364632671897335 7.868872282845506
1390 3.9270682961958 -1.7129220535964669 -8.641004306589686
3192 8.42204486263831 0.8374587418281103 -1.194083115619783
973 -3.35446910987605 24.282380166813173 -10.898005419615316
2466 -3.167429436722199 -2.2879042704852437 4.47209700233833
938 1.3536681541634172 4.312229148129302 22.472085075644387
4062 -6.603941187100479 12.720285711787586 5.7326497205484594
1873 13.558323467587947 12.51496769670094 1.6766494680781632
4269 17.744005723307957 2.7060034405938738 0.10006307716957664
284 -0.2573609507364914 3.233981631580219 2.07821152955163
1367 -7.313563016207497 5.755138883701215 -19.669230143906773
2582 -7.829740826114252 -0.27547262188024757 -4.038366128333733
3863 4.785574401320142 0.5276997030402942 -3.340976487026872
312 -6.369175043609646 2.211773574713546 -3.611915723536668
3784 -23.544177522039853 -4.817864983136181 -23.746140793417496
119 -1.3544981014935333 -2.991226962327428 -5.730439077295784
1011 -6.2570915514047565 2.899584587894811 18.337252427786623
4296 19.321144734761173 3.6157885449754525 14.70623384983754
2283 6.814208057562081 -17.333974917387284 -9.681826074064723
2903 18.08485806985703 -24.912290684139496 1.439049012028695
2899 -4.17152738433544 -11.132307074025949 4.24926318158255
2120 -7.157982922396473 -21.184316357548397 -8.625137397013006
4290 4.417938524516375 10.346153804954845 -1.3527261960371955
1528 11.767679953820224 -2.102041464241843 8.76224114016538
2812 4.5012228023818714 5.976903397284464 8.495115748387134
4182 -16.336773048521383 7.370832715015747 3.562677475532434
1813 2.225081133834828 -5.969020704035093 -14.401380963570944
984 -2.3743003318840303 8.50239492430979 2.873826708596731
2528 -27.273198575712772 -18.66160986411526 -8.713245099106636
17 6.93473186444588 9.356148759744157 -4.429119096505172
2057 5.367255853565067 18.93510422226472 15.611954198064199
3484 -17.640245066739677 6.752971919459493 -8.637375925451868
4166 -4.637416713013447 -21.22416620514539 -8.635113548486395
1802 -7.730992140764839 -1.5562693354473367 -1.6948680160206777
2026 18.44483075611339 0.5129521675449356 -13.839578578578589
1430 1.8420528130152174 -3.9192596908787847 3.9749244653680713
2875 4.479034941991568 6.060855791580551 1.5143251229172754
3072 -9.767689515968277 13.755038780262906 9.365287893703634
22 15.199606349370361 -4.571311320014122 -3.7747762950442194
23 3.3432514066182057 2.566273510974001 3.446813063557707
3048 -7.639123007170195 6.3798806383006905 -2.9244991703585494
2813 -13.21948200746097 29.50747128632948 3.3602086038664023
889 0.4337401370796248 -11.96570501504477 -0.07858556575145002
4037 -18.978333249668776 -14.13615022753577 2.5789470773085545
2127 -11.280251749074939 -6.871715692639181 3.4095999823513226
2348 -9.343541728288997 -1.1815349344250055 25.219830011462967
2266 -1.2544791341534498 3.476801905325897 4.329738872910013
4001 2.3216812426156266 -6.161744621993227 5.840962206947192
4254 -13.21195852950218 -13.673074670932817 7.317726431975495
3560 -2.601265737325849 2.3804224778808964 -12.222715839915402
1894 2.3219427001793287 -1.0799757056716919 19.441317295288428
2622 -14.428570355216614 -9.43739775006517 -9.830837051380872
2611 13.359557091381964 -11.620535906016144 -6.078075970900302
1517 -6.646452509575089 6.29137208748266 4.839014384502163
1105 3.560275208443196 -0.26430092228168484 18.562097767385417
2186 -0.6356912564767927 -15.086867504942733 -7.532628243458481
3537 -1.759824799699515 -16.64148426749042 23.38354707525978
48 -1.152152037587647 5.1248437525029695 -9.78160276424316
2387 2.8049503720917515 7.777536081065786 -14.136117921727733
1684 7.272602247837987 -20.825243244144936 22.640544926060663
2623 0.4630042849971003 1.7290970973309387 1.6343916987187541
2344 -1.4771887596497066 12.81990560482677 -10.400966191872364
432 1.8421571400534007 -2.2427646787011417 -6.041077650551753
2017 0.1645735764907774 27.226841608017267 -13.037259960033047
269 7.28853963482832 -2.9858946226503478 -2.9655412865655886
3517 -4.729614783228191 -15.229617059463914 10.350524314387407
1600 -7.865025862769557 1.6489294742240008 -11.183401120508922
4075 -13.819389690610361 4.236117267308198 -11.599076392183356
985 -8.99362737824971 -0.5118166398056377 -3.8461330249115573
2998 -7.694796894983697 -7.286422810373456 3.0007075799894958
3087 10.303881245731139 -11.074874714191628 -13.388516044405472
1355 6.952666669584395 18.72628257429473 -0.2983953315371898
1125 -9.637544623801164 -4.599874166385093 5.531205915012855
2569 10.927718460121893 -3.7022758049458755 -13.172248535123044
885 -7.615439088535533 6.638257988383339 3.5787399611626105
3051 -6.788621941251132 -2.0986905590405365 6.383153349591907
1348 2.7989588453365757 0.3788000711331644 13.008399141389493
276 -7.418892363136493 -1.7011368096733699 -2.307804744275913
793 -3.7278006963662915 3.9329057134442906 -7.032278228645975
3317 15.938631447122004 -17.523934743330898 0.8609463954084553
3127 -0.13420246636379649 17.499824720784797 -12.190953830982366
2083 -0.707384974401576 8.563341283591505 2.8799528398440626
2140 -3.823341885105568 8.515824391992357 -1.2767372987586725
3254 17.576664282090494 12.759584280299045 14.301966495261231
918 -6.083603259613408 3.8647872672111956 -10.144457444800178
1062 -25.1457007627022 4.868242083761176 17.067481177125075
775 10.793180645320897 -5.179650636253835 0.9710643878609057
1659 19.191738238763826 4.218999856062551 7.216722221675294
4208 29.668262708962658 0.3260965911526188 -3.953591684720268
1993 -7.823723178075444 -12.54821341736591 4.326930090136583
638 -0.976518499991585 0.9957796366276491 5.948040994009623
1806 -13.147250880256117 3.380943931839073 -3.7648141605016474
2286 -1.744953319055495 0.3873831058110916 7.4441718462361814
2360 -9.947746385292291 20.292431882036833 -10.681538040910587
1184 4.430394238453805 2.124468053404153 0.9419705196745575
1097 13.342567941677617 -21.574820007052768 -10.207342178529421
1637 4.70828339386579 -20.780642108718244 -4.547115502797827
51 6.435443240790066 3.5836032183594826 -0.14791470355040726
3220 10.443819019351736 4.307647165201545 7.82021833406245
109 3.4641093314084173 -0.5973954775040593 -12.89662370226158
3899 10.208223353536017 -0.007200933007382772 -14.583747712063378
1780 -24.430816801832485 -9.472254734461607 1.2488652543034755
653 2.3734670484994824 -1.5439238474867334 5.949227626546594
2646 10.305349835588753 23.557460951450356 16.520199577907775
1977 -12.155912702608196 12.594438456697926 8.330866675594896
2358 -6.051490515049498 -4.064177791937071 3.6271628456499516
416 -0.44836489177068295 4.335903348781206 0.07737689408978744
2114 -6.95052538895262 -8.874974015458482 -9.919420852453927
1245 1.6089208459336475 13.658845311955005 -26.49869498991065
3946 6.819186430302857 -15.52631277594147 8.585198862874329
1987 -17.05837359452395 -7.762209101170253 -3.017500830829276
195 9.169627608582418 -3.0091698829803404 1.3554575861901443
2232 10.876238450564719 4.552609575457511 -22.541060313162376
1620 33.66898623414261 4.696072193392754 -10.552676153853218
3742 10.30659780894378 -17.05162785550658 0.13519053238942708
3883 -7.244017724683754 -8.453744550958664 -2.677401739740212
2457 -1.1351174056896018 -0.39478422093043974 5.923334203497136
978 23.909933956638895 -15.796302028979202 23.882148367208167
3032 -4.744265601073295 13.133902492861289 1.2278273857322415
1448 4.673269712084883 12.340044726475423 -9.314427469547368
1199 6.120284509915775 13.418866838221026 12.210032435145827
4099 22.79249100157285 -7.426937550604632 10.515137872342953
1120 -22.36687107388625 14.242019570550989 -1.721619319977417
3650 -5.496140480427203 -7.562519257693377 35.20949968023494
1278 -14.435362036466868 -4.12173985477462 -28.415055287963693
1310 -9.303109861311878 -11.225259054919086 -4.443356238263495
3074 2.684129344381351 -1.725186660247403 3.6821427216470775
4191 -9.682192453145992 0.6367665265641125 1.2990915115033037
1817 -11.14347452761396 8.770132986527893 0.35249401216514265
3139 -2.7989337261013043 15.86208555398306 17.338617351752266
2536 5.384196437175828 4.379245372473041 -7.905153754378281
1459 4.254704063871329 7.165066137454575 1.549304927109963
2818 23.06616630798158 8.44537731649337 -8.149284036524042
78 4.014221022630376 -4.769970443345192 1.1287621521153755
3113 -3.3862606656753576 -0.3490896084066088 10.183180984640408
3644 0.33141324949692585 10.565045142328875 -21.316329396177345
236 4.865466052945012 -3.4308927998412413 0.3377093325468024
482 -2.029913082869299 7.489109688218459 0.573402393833914
373 11.103144236902983 2.659219204658357 -3.6884717596928236
414 -11.206285600424078 -3.5754081935044097 2.8028091850796466
1900 -9.339289879211176 -9.749749554495983 -18.488909626831102
1196 15.996806708579555 22.384339532747486 2.7198001897637627
1222 -18.270109534248057 0.8952274520505439 11.257345976326736
3741 -20.88513752950855 -6.453104745075851 -9.792102444527144
2675 11.46329972803214 -2.5260138576778957 15.218587219797051
1698 -28.124463517594243 -1.8759709368601964 6.650144531832483
4259 5.669137039485746 3.32165085061237 3.395239103693651
2929 -7.945943704312349 -12.750922840629146 12.996814078757296
1710 -0.15650405680723103 1.6419094955673394 -1.766843962752069
1248 11.107697470006636 20.176848168281918 -7.851729101530748
3424 -23.936070543281197 1.7670070848604231 14.86193796506492
2241 -7.583129337800321 4.690558824079509 -13.141578549269832
1725 -2.450023710737156 0.8764184511776991 6.424106766126244
3388 -10.462307497835877 9.488589637639842 2.9173149177551005
1934 6.423909925763328 7.521568667975007 5.867253042350088
1142 -6.65368753886814 -11.892279693918011 14.57733957846286
3603 20.741974476690327 9.791687203685141 -1.94340032693898
3932 4.030772827973961 -17.41891941119056 -5.611831384559936
1693 -23.37853871404947 -11.289910918090326 19.05846977767321
1213 4.5192272797065565 12.809841948924031 -15.832162656543597
2025 -19.68310641673888 -3.755940490159583 -17.0017057612438
593 1.2715362884855856 2.464478000689439 8.883830589635178
945 -15.538340611286868 -14.212633935056703 -15.063627908187216
2937 2.84128084251097 -3.4142819392145 0.07538615910341048
2785 18.95674453119466 0.2148914481553335 -7.628331728814682
2570 3.4090562281911394 -15.140709290615707 5.486390975135607
1514 2.5100129087567047 0.9423872549955454 -19.34249957459544
2291 -6.390649062167875 -0.8921036846670729 -6.768284147343997
4238 -6.239581674288087 9.169198871293876 7.3276447664334174
124 -2.4404583721799664 -1.0474277005914265 7.731880597787603
954 -6.068407047632605 3.438747294129172 15.037526915602296
3665 9.620470439973895 17.288538824536147 8.732472044491395
349 -4.827330428488278 6.81586873885689 9.008964133483895
658 -8.84163737546313 -9.045317954179458 4.847226928046269
1586 8.441442443503455 -0.20732064020417482 8.995414738787238
1535 11.154315152108529 -6.206380083000925 -12.181103471037963
4184 -8.349413389366447 -8.244749135224906 10.50142228544631
318 -8.723141893061737 4.480657676699547 -4.320690295520825
1549 -2.8326196590592154 -17.92741800409666 6.172003674828551
3683 -2.4987555233961936 -5.316611086867145 -9.224859358875483
2783 3.6957937492001394 19.279565873622264 18.45237524874849
1468 -13.237746717060304 14.08423769661351 -5.9728563077908685
2620 7.055417803442028 2.4444577403486405 1.650808960227021
2439 8.774364351569545 -20.798312463959462 6.520573548976833
516 -7.702767823557697 -0.9900833709204901 -5.871849360843394
3322 18.781825128948448 3.83826682400499 6.770667146589367
3698 10.928356428237112 -0.8638252423262233 7.697020414007255
2246 20.767251863880887 15.165262746559584 0.43781348970192235
1972 -7.590980981761523 5.847572412728298 0.6600033248074961
3332 -13.563643908446219 -3.268656394802083 -20.287134081110743
2421 -14.351303059475105 21.522732148039736 -11.740669013587034
3955 -2.22157783650892 -12.106755671250534 -4.147453265388214
2911 17.598609734844725 -8.396054890733849 -2.042031443599426
2222 5.898341192663127 21.897676018806997 -6.075383724568698
2867 -7.328973501531714 -0.10736602717499576 -2.305011596987461
1229 2.647287866734857 18.70495417857362 10.380407888325436
1384 -10.156896457227361 -4.84264931878364 4.473972006344723
670 2.6156438087376523 0.00981838148794892 -3.5133341230058615
235 0.43514576336307453 3.5212873552179245 -3.3959273279562003
1826 -20.438410334546816 17.312937042546356 -16.882775927491384
24 -5.076505845489754 6.661700158947731 -0.19988070341635975
596 1.8984117650346424 5.462177765647924 10.917174738167297
462 -3.091583900175672 1.363124598957327 2.1893081606678084
81 -11.677904348109594 0.6390289172151238 0.34421135157474675
1794 5.525946650985056 3.7493640596738445 -4.487502410321459
1147 -6.131601986084658 1.3519445785333857 8.53969004244098
1656 -0.05375955753194839 4.923712767944549 -1.2114174996172085
754 -5.319434276908616 -6.100252581902592 10.043314679170036
3135 -33.26831991643396 2.280171684953328 15.467345266187188
2275 -6.433820899992243 -11.084345198711539 2.357068503825802
319 6.102624262278406 -2.2067274422918914 4.073300518688918
2900 -0.3962580896988671 32.78889010091428 -11.874055418105979
270 2.7889031170387555 -4.0364722394157235 1.0710124744854832
2906 -18.87615363949218 7.3585947701452294 -14.823096588330905
4115 19.25704680735727 -12.33019470736162 7.2454042504302105
3292 3.7886518999785945 9.963868773817099 -6.30568171807167
4024 0.14926596084228821 6.957567631936036 1.2947570335328702
3210 -11.240600469689202 -22.435505415802243 -8.508443872743122
1799 -10.553850565827261 9.302640060953516 20.07247747862793
4121 -0.8234612427589184 -21.491565115842604 -2.613741883881057
1256 -13.507729827722171 14.03627819360463 1.3638421070061169
621 3.8706774041342187 12.323210058089776 -2.8004692845731194
2440 -15.73619282318464 -1.1244872667828802 -15.26238399633223
1026 14.433363739621518 2.136878510704645 14.888499975877433
3801 -11.063328225506227 -6.887614951219705 9.41415449476291
2101 -12.60429412132908 18.799876191901102 -13.975588133447035
4224 -14.85609107633927 -0.2789502345282129 -12.54215245483994
406 8.098961979247852 0.6513171898175034 -8.017487827025963
1287 -7.113552003101394 12.172764231824429 -1.8483911345920987
1146 -4.3426750639703755 -23.27329889296326 -5.690363491832666
3746 31.733314368751028 8.924666970954819 4.749287811823772
1526 -17.33218428528193 -15.422703572396793 17.310802025474924
844 5.776274225655205 0.5204642518401201 1.2273550963142095
3592 -18.879761456827136 -0.8121266977826379 3.5265963834051193
1509 -15.269251134423248 14.536316950402496 10.078509488374328
75 -0.8669430599469315 -4.609926202163353 -4.892656337533208
4148 -18.295516416166457 3.8063484353836374 -9.675094996238723
2039 -5.362977864453008 -6.451998810969634 -3.6547287506281636
3382 1.0907015374027564 -3.094796697661211 -15.483010624581622
1570 17.703441916200205 -4.55239630920696 -6.054588937769585
2882 -11.577755232801046 -4.122756253001914 -2.4179888040892807
2934 -28.47718007110531 -3.0608262066939966 9.39925958147064
496 2.2424812606656466 6.592217443837229 2.837709009221552
1404 -17.81230377892965 -2.616071866806731 -12.81604606103838
1150 13.026226537227695 -19.816168172778845 -7.9012156180601405
1089 3.995238589569625 15.283283285906212 -1.9196019381808878
974 3.3310255004378817 8.344256815318502 5.8118980447691735
106 -3.6471582071695474 -1.648084966846298 1.7462258675116702
3040 -28.251749984077655 -3.1523540981769096 15.088627298291463
1308 -15.596640088444083 -2.3009315432897286 0.20395740345225738
2267 24.924949905175183 -8.57800546721272 -15.197199034196554
2249 2.8200966699098062 1.2483413515319484 -17.730573474015454
27 5.782547763266672 2.0937445179575973 0.322636755633559
1695 -19.010106922821766 -34.398785406786914 -0.6478308740365868
2790 3.0082601304666765 -23.315208157008822 2.3135679578757737
3895 6.534578314113559 8.83891480897844 -6.282026105889792
1827 -1.285726795480119 5.97846263501047 -0.6814653593212172
2777 7.3430836668107045 1.3490334995635695 4.449361934946964
2029 -20.3594133618783 -6.170539889286148 12.765537059150084
4312 -17.184077873806384 -1.3910553279048075 13.435692385847057
2684 -5.898551767940998 -7.143878570023532 21.754033560588482
2840 -7.488877223289846 10.272014706382318 -2.5464229625849715
3839 -15.381953207389985 -11.465366124088066 11.780101835680503
1897 -21.483755705003794 0.6867531202831668 4.622569740994802
3438 3.911623671975007 1.0087105285811333 1.779267018587467
561 2.2034809869825036 -9.469828348872102 -11.390949586807315
1171 4.941400251376773 -11.868315207944443 3.9983042144416454
2367 1.9551489907564459 -5.132087858601794 6.131229063588552
1431 -17.651560399646602 -1.9508835373017188 -7.644497864644025
3043 4.612109949214506 1.1800037006078399 10.945175748190458
3541 13.999032654746035 -2.494609374108462 -6.657634057925521
661 2.855008358641709 -4.742218562734051 -4.961516167433626
4284 -2.8656671765094357 11.109326372128729 -14.156847654284661
826 3.6682895797933512 1.1230073971475807 4.794037098422212
3761 -4.568464285955881 -6.401009783174728 22.30854847200621
2006 18.428205912870105 -4.464856704325903 22.398630409515338
1888 0.0022600036481727577 -2.166941085924689 6.60332533207427
912 7.703832808891782 0.46487078820447264 13.279440525476797
215 4.474098565556636 -0.5745384432573707 0.9845387708873261
2299 -26.927355102076294 -16.114079721341007 9.490741269865012
307 1.7737319265720675 -8.54480424894558 -7.466868804367746
184 2.893092378459469 0.23256559346092173 -0.5838807339275133
1722 7.8606346188030205 20.219891346411067 -1.3408645740145735
3502 -3.860054706159058 5.628998175815057 9.78975304418171
4047 2.5658538221596667 33.33085042510156 6.2804883496356645
2608 -8.350300715561234 4.731535386370154 1.6352069618150897
3414 -8.140570928300855 6.277346133037343 11.18221721762791
3019 -15.80215865180839 2.4481311939388615 6.3090600149438885
2848 -7.8807160108173235 -10.633720847261936 -14.34349076699138
762 9.806038493543399 10.50629002507513 -0.24400463127810876
3872 -3.055278953576031 3.8448034268243454 7.607758090686885
1747 -17.94771182105753 25.60184142685323 -11.127086015868363
1240 -5.4870727947897295 -6.383754472276251 -6.121406246493318
1375 -10.028144475355578 15.619176112737772 -2.1037223069791033
2297 9.205190682640866 2.8723429538662812 1.9937547316803914
3261 -2.116051466089221 -2.557895623492368 -1.216520868673743
1874 -12.565616957398738 33.18198819004022 14.947620167012696
3022 -2.4611794544821026 8.37516372036045 -0.13566861330356572
1392 -2.072964475293939 -9.62931472021449 -3.731040453958447
302 3.6018571762372167 6.045475953477002 4.2119378012253845
2376 -14.916674366464344 -9.286825605470325 -1.2747175801422361
453 5.957880268116842 -3.2690031794344905 2.6864584083448206
798 1.9180658244246784 0.7974294580443778 -0.018876068387712688
2697 -0.9296537311474103 3.068689322163494 17.877730110106413
1317 -6.531299692210237 -9.328314512475913 -5.360793339546039
2683 0.4521205789945514 12.183400467458636 -25.164580006639902
602 1.980008444909269 -3.3396316611786325 5.655140610080683
1756 14.56983187910632 4.725746851826972 0.5747998966284429
249 -4.43286620814602 -7.3579506507318095 4.343597581841138
645 2.946682763132376 -7.045391062669503 1.8546300546394723
2341 9.014403268277674 -13.687000723304228 -1.0471267645858169
4219 -9.508135745395746 -2.471717775161238 7.218903769075204
2890 -14.71983182638802 -5.36622717931883 13.446218032517837
3813 21.782135236578327 -5.108305213600415 2.9058452438850626
2560 -9.9344463082914 6.9933178263169244 0.6886861272421516
4308 1.281540101827698 -0.5057646762809621 -9.167796118983043
1706 2.010479086615347 11.936743344896572 -12.003935298305768
2446 -0.4696063428055574 -3.9975443748757993 15.522553973092565
220 -4.3555437598596685 0.9740854938631085 -2.2228229149293264
2107 -0.8058016278688936 3.295586217549028 2.1984929831647433
2423 -25.548847359607244 11.408723234984972 5.403608765259075
3206 -11.56771735510566 4.493126646454215 24.82855499890537
245 -4.284176902313851 -4.021834471893667 -2.6429439962369385
2989 -5.817320640909574 -21.757285498112125 7.967825403032725
4245 -13.44940466366323 -10.565582520221797 -5.619404782018846
3765 -11.736353042997939 9.371421591314634 17.999955288724156
626 -9.892488265555134 -11.32525519624818 8.80346364317296
2964 -8.240907218093188 -14.207740933614199 0.5373108140259536
3725 -5.496168007302187 0.3299003002362682 16.635427879325846
4292 11.357735176835202 -7.217333312438385 21.261314592715912
2931 -4.61090818505964 -5.586887990097269 -7.301499053413831
2237 7.5536382418463175 14.20102385525553 -11.27267371496393
1394 -9.620350952486637 -5.4663029691927365 -6.130436763136092
728 -8.515841984339637 -13.15304185184651 -6.626810156246203
1844 -9.325825090695929 8.240394177930362 15.972695491872143
1781 1.7868578147972225 -7.059887502529946 12.62846036582721
3905 18.868442640580742 2.1043976699496603 -19.82910742647117
1941 10.224455328121698 -3.1575012825903817 -3.529088290890164
3326 -19.322281075546197 1.6573391692619153 -2.5775377393229815
4068 16.191331650167125 15.503169402980115 2.0169912466850706
3161 12.820720630225814 18.251071956053572 6.014961809288119
930 4.8394494521924765 5.467679938567715 2.3966343152416423
1893 -13.951185176888032 7.264824114734899 -17.938211675202574
1073 2.9130223781521276 1.9388928422013132 -6.866221589581327
1047 -5.758636578583655 7.085915943447711 -16.876611875965725
1458 -3.3109597604836454 9.986043280003631 9.833599605147223
3128 1.2543163466821956 -2.1521438378682087 -2.7834264718049266
2541 2.057284751864569 -4.620741968768095 -5.930199071052919
3302 13.933073833976032 -16.892770363818347 2.2049569755614016
3448 29.44140643226471 8.703661113994691 -1.3963193799548739
2235 -15.399135372622869 -8.086725158410443 -14.731826662307093
1270 4.907672492342957 -7.528094127839118 -28.731676694942344
3887 11.202000899687201 1.2298926828294299 10.11788258195717
451 -3.618349186388942 -3.3301943750645897 5.647626526062905
4174 8.011046174378649 -4.817755458770444 -4.344827707029168
286 0.40781850495295624 5.114077573825399 2.139740181607324
1469 2.804666693995857 -2.029429386104193 12.359522524990831
107 -13.712002462772594 -0.32699737189302386 -7.390596964272341
1823 21.19422324639771 -2.349208121579492 -3.262819320605494
1862 9.718046444532861 -16.90901442235667 -18.522021960631616
3622 -1.9113468019213398 6.0743362061106385 26.254395360855295
2201 -4.3105435273592985 -11.247459886669601 -2.77709499722226
3827 5.857164904688396 21.22891066575703 -7.887163987219482
1137 14.669635273866149 7.398493193643475 14.285893789846712
2014 -14.94113344533962 10.937900390849173 22.94612987944716
436 0.3713197678195534 -2.625735640606272 7.901036368266203
3387 -5.47273842381884 17.337403466814543 -4.343989299604915
1054 -9.528288933914022 -7.8202496055947925 -4.008189009654684
2383 -19.990781451860226 7.125057457110303 12.803144773111256
194 1.5127900686765174 -7.162900872723101 -4.647102817814523
1969 6.607172611943648 -4.90215432062029 20.2991545814493
491 3.714822801277912 3.697276519486019 2.8132404018512993
906 -17.409785022172155 -0.5138519888892222 -7.349389483508248
3194 18.397545875873725 -9.45831912011126 -9.290309797555826
224 -3.878244706694669 13.752327760373163 -4.432962263551239
3026 -5.297761455896873 26.91692291210442 23.468439095085042
3313 2.2749067611231903 8.552285739813414 -2.1010367747988847
2854 -16.86985828461095 -22.83383735512656 2.1941878516088758
896 7.960577797069067 2.7097091637109934 12.061725149437121
3539 5.759819436812946 -16.609787970752894 2.7154041609119552
2752 -4.959196491105828 9.265820514232459 -5.265377910728398
2949 -19.956061690078105 -0.38074492583830777 9.14039559617767
2441 -2.28686108606194 -8.728548792910992 3.4088082353240354
4040 -4.574397287420734 4.288262296202823 -6.647272506592094
2920 5.11036637087094 -1.0977367522455486 -25.05632672299896
437 2.201886420662859 -6.023750780464028 -10.955185367998286
2085 12.628798909848141 -12.176322590155474 2.5570371289232567
273 7.688743147175367 6.255760046470269 -7.179698808929387
2284 16.715057147029587 16.92361988157837 -7.231528683480587
702 4.641062001648722 -5.438040583077392 -6.071264437742642
2193 5.336216150097112 -7.635693662391964 -15.404935467620609
1920 8.038184794103916 -10.752594798006466 4.464167325479015
856 -0.016804227941566746 -1.9650457207624965 3.828405680590918
1628 1.7297309414126185 1.4625435131667726 -23.64126436016157
886 -4.544298773044497 2.303849363840609 -1.2818353022771747
403 -10.13413743408773 4.5030871338188305 1.6646959640575676
2596 4.9818292693724135 26.235456868972097 8.639850352798453
4155 2.661732454880767 3.1444329915024287 0.40260459609001437
846 -0.1147386063906793 -5.010311199557322 -1.7649894024180255
348 1.7972925445230739 6.929046902462425 4.6051131117093105
554 -1.6363378033128986 4.195963081038197 4.107011897968812
4177 17.239123552016213 0.8784437565814427 -2.1344193050963964
3782 5.813794837417278 0.014791435882572987 1.9916804656834548
1692 6.460332734909594 -3.726171807560643 -7.9413002369606165
548 2.4097355372512026 -0.673527023025177 4.832570830415379
2252 -10.45108811897216 5.104437038131114 -12.117999706245547
975 3.7954732627378847 -1.7190599622685594 6.3845921307832425
4105 6.539764023640337 -3.659293423693037 9.775953572385665
570 0.8568026720250331 -9.712991767140167 -9.563284977261505
1091 12.348740151532025 -14.536567907973291 0.028744545887254884
1916 -3.77760570275577 6.902788443766694 -11.906874350293739
1457 -2.1713210995842522 11.752603289096431 13.851747419797421
768 -2.521812306470333 -6.215276897568805 -1.1856494955869359
2317 1.3174061164403872 11.906432610439737 1.5137322657475374
2879 18.530655184501875 3.1369717174944713 18.623711880449882
2500 0.9756069894331187 0.18056521828080768 -28.33565146007695
1143 -6.763441274327716 1.502763587130456 25.702601044452535
454 5.146171043601804 -1.616075491980122 -0.41199353814656686
3036 7.4771625458275315 -4.966331832332295 -3.9918313386565947
478 -3.2617849622000734 -0.6723935250531696 -10.820716912822027
928 -14.096669176006975 17.36434358153869 -1.6943362074574477
425 -10.490616274713203 -5.741326034894872 -0.200525913323975
2531 -10.955209858885516 12.031160344315026 -9.07886265969152
4132 13.544614613725145 -4.5246427819519965 -3.652607731616904
3495 -10.569769347252034 12.789261808932146 -7.261613372977224
2878 3.5923238061561054 20.461753399342754 -6.059361249097165
2824 -9.480816889841261 8.566186186438335 11.129536098775116
3778 -16.330193846478462 4.251587446770389 13.691744927678464
3524 3.103825600088027 2.4270705475849477 1.9171595739094107
3506 2.3847582520492834 38.104133493553725 -10.408151230366713
4235 6.453918497924394 14.104203860977114 -1.4121321587636484
1075 -1.2098023005272835 4.146592540952943 -12.284533463000765
2088 -2.7965817807911266 1.8458235927204205 4.257826780266187
2584 8.823400670622243 -1.872462193950464 -13.32675156296267
430 -4.817565410006391 -5.282038415442426 -8.329528515875053
4162 16.69018493636585 30.897113914425532 -0.004024759597185294
709 -0.2979537918463053 2.8684819628137292 17.991529549752475
3155 -6.492345208403648 -24.37636382608921 -5.2233323949490496
1475 38.78768078972799 -13.160157793541067 14.60383357221775
2830 7.908834210324215 -1.2841027867555272 3.2287561131563693
315 6.605625234613466 3.6500079694441814 0.7527995480003523
148 -1.893618894734577 12.477736742371 -0.8960657350600061
3415 -0.41892874630148375 -3.3663217570263404 -3.661826574915897
4178 14.547828760756135 -14.583521930626615 -0.21847308544574673
3002 -12.266427551456555 18.063418112555357 4.301472566974818
2526 13.48974937212674 -26.928788205379565 -13.183461882082664
4195 25.743249717136234 5.813037758384034 -13.572476349218094
2352 -8.42626603519665 -25.729013820376473 8.525742729933492
3734 5.312193420047687 -6.46835337515455 0.14244602589461963
101 4.934059512847206 -1.0263320339904978 0.44093245051324453
2298 -15.344074471531519 -10.025124191903373 -24.39922068089678
4000 -19.89925515617848 -14.502635315369131 -9.315470946149059
2112 -22.236414648179807 -0.253837496775834 -8.030977997963198
2990 -11.716031233281772 -3.0887176267947023 1.8035623886757177
151 3.041101904320589 -1.9316686561157639 -2.617134593052027
3142 15.827614408672979 -0.7573250149305449 21.043928976079215
3573 16.251113508454964 -11.143553560159543 -5.273460325842532
1101 -3.8188030565037177 -16.06526476420396 11.13476452349177
1596 -1.7580733118668872 -30.30394056426897 -8.964870153220135
4144 23.068902919537756 -13.106002389147122 1.0220036316017231
3227 1.1280262599806874 -5.390841719622891 -2.0949778037635234
2472 21.330420199997207 13.579304382829083 -11.213857934087535
2206 -0.2846618407602154 0.27591652880339557 15.226472027268157
1052 15.414267662045605 4.4060466775894795 20.686186692193615
3928 -6.4491240661801585 1.3611387692908155 9.01916454346227
1024 -17.071357291204684 16.38577663489473 -6.620955976491719
4051 12.488478177896015 4.08762239168152 3.5003313473504214
3337 0.1870617314584045 -4.971873225624495 3.120457191967229
2329 11.201348282060593 -14.084092377913409 -20.0518926898968
1103 12.091476717354482 -7.611392256700117 -10.687940031680785
1354 -8.64817935170424 22.639485147802237 -6.950366297927152
2857 11.4789222388639 -18.560419039529542 -18.605148931577286
694 -7.227500061500684 -3.879277641803547 0.42836357317935714
29 1.679184697821342 0.7838905701336817 1.4778705689021425
2415 -0.8248657035964216 18.05329593823116 4.3371447510139145
2008 17.39165587157819 -0.3076897047461633 14.277055862446517
1718 -5.9428732406297184 -11.782906425534343 1.0951362338804176
2978 -4.9133812326867705 6.391763879073674 10.590555144474177
2558 2.4823023157892212 -2.366633232742236 -2.722343454394501
818 2.3094714336993585 0.4471501240508824 1.4837827850102827
1233 23.844340623718075 6.913426378009159 -6.533350561030581
2851 2.8364997026296694 8.274640233760156 10.877577519355167
1515 -5.315224084744308 1.4565496998540288 12.150759585331171
4029 5.991814882542125 10.117815627992 0.31039246119172964
2055 -8.79085507781676 10.04153924446138 -16.536881921630087
197 -0.14995550902221494 -0.46897225398845327 -4.456381908030082
834 -1.3608472789321826 0.451187676016875 -4.034167832654304
1159 1.842862569049408 3.927821337200824 17.876738976455485
62 3.405779237682083 7.571177313945732 2.2256084090127013
772 1.0361437483467375 -0.9091305370351023 2.4489846593919093
1730 -8.438555243194255 -8.097045775319238 16.59690622168956
965 -4.737250391412428 17.92771266286892 -25.437381739068375
1331 -6.178449882401172 12.166839249816116 5.847653640035982
2811 -1.4796507838147634 -3.5428313256610484 -1.7416126842151705
447 -5.862715118562124 -7.1888881388834704 1.3396944759154867
2953 -4.818881865611016 -7.2358046078516365 -4.563004062172094
4210 -3.252087548616987 -13.36205595032489 -29.134913068515196
528 4.035072804127238 6.6016717647970085 0.35450432929057163
1764 7.3256203382521585 25.190806643526734 18.64753806151045
3211 -13.192373083860902 9.39745348128687 -8.624513462795013
1595 -5.156604676391678 -19.014637724057465 6.347931219343742
1044 -11.597417807093658 4.482368422374634 -5.14226476903468
1758 -27.68222755416908 -1.2012455180293997 9.277235143720722
3626 10.668254909094752 -6.941280169774928 -26.048081187022913
3119 -0.37854798441612725 5.1285739858007835 5.53972857814148
2649 3.9259047731386687 12.797497246168462 -12.201931242764836
3954 -22.096913313244016 8.52258279389586 7.280048695324783
3247 -3.761523618803848 -37.33600286110183 11.6393906016051
4163 -14.968592848754554 13.305950618896073 6.120683947663398
2436 19.230041640282952 15.846854104282079 9.878819173045217
2475 22.736386972179798 -17.141624806352446 -6.621600532980763
569 0.5085049780080882 -5.31092207903425 15.957431038252848
2333 -7.312568557929436 -9.826107903429838 10.627528716084019
1943 -1.203408529960251 -5.34866963543555 9.923421645413514
3298 -15.854292711119546 10.89595779959673 -12.975375921820094
4216 -2.8444639998918944 1.753413466391195 -4.757706103364727
3454 18.60267760162459 9.025942095743542 13.745406406442385
3374 -6.035249808347815 1.6123645117787286 -1.7423238892014414
232 -0.3880486112147055 0.30244011140173527 4.94724263736482
1812 -0.7522433034785614 -20.442844173529203 -2.0940254850306945
2901 -15.980861694061558 21.99413213264045 -2.7742680028043076
2552 -3.8476247913622066 3.3935885064524656 -11.9072880762723
4276 1.1389337347543473 9.127965267306184 -5.7122344997941426
3789 1.5816280261517732 -0.8964263427307 -4.481838468791333
2548 18.14088522794233 35.67979965905952 9.320683210522125
1421 15.272734570613888 -16.2700415300195 -2.3394121449836796
960 -1.526608810510825 -7.062596270049697 21.333727749295697
3417 -5.540322979240186 7.4228755092715275 4.883869252742154
3577 -12.60400028683128 16.302042744870228 -1.265111978049666
1715 13.60279908411902 5.9421503150779476 -5.313510933186917
4165 3.052346884701914 -16.84576104757019 2.120625684582345
167 3.7939700821373212 0.8956833259958052 2.2708026351119828
2274 -2.5783103669137333 -8.145646678107479 -4.607882437900043
3202 17.282724354146 5.805456906930535 6.605145778952751
4262 1.4991453108252384 19.167594286485766 -11.462235448143568
125 -9.72848197782259 2.341883145823746 -0.053437445139767614
407 -2.045545526149015 -0.17214286813050667 3.789268905385064
4137 2.084905503257718 -7.0224888859013985 5.0949154219894695
1707 -17.23756645349155 -9.808530106952034 4.269534029293561
1059 -17.63788855375702 -5.144396779266293 17.275636666422965
3521 -20.929154052219555 18.317792642251014 -1.7224945369611284
559 -0.9336983914113935 10.080062791377538 4.730899342447307
4034 13.085999194526652 3.296992614002093 7.175987767290384
3386 3.7791402383656667 12.304147749310022 12.027021840080726
3214 7.087260542275542 -3.138713509277413 -7.6903617017849
3015 -15.345150397445147 -3.453857304385067 -22.348517686028636
3576 0.7198091547600804 -3.5740564489184994 15.843163126992565
791 6.051340505605225 12.057959311774376 6.206979015467723
19 6.726459982793924 -3.66305658243322 0.05372543805529298
1591 -0.6766837435397571 -7.313131370173447 9.98817153236719
3380 -15.954346598659296 -18.53534977139498 -16.970772959226498
3585 5.3501374862903655 -11.813668637486794 -8.4199980285637
1151 9.019373994651549 3.162747793125201 -7.386146130002533
544 -0.737268498450999 4.93128008344294 -4.208253839175585
584 5.553425798549721 2.2501373822744504 3.423189805875847
1966 13.758206076783926 11.428060314516916 -4.703181838217644
2217 -4.236243980951707 -6.736424038581784 2.1077005226877032
2288 -5.258714379996221 -27.999907499260704 -2.7867385994549916
2280 -8.179467848297271 2.778069176365805 30.657914830071956
285 0.8461267280796484 5.913329731553963 8.549235167633759
2094 2.9410788913153874 -5.581745009684569 20.16000431319973
1732 -21.95660058980164 -0.7153029131086909 -22.62123788999494
3439 1.3511263029076432 -5.966485342449375 6.719384542793379
1037 -7.816911741828798 -10.11603374320162 -2.4054411335060064
1481 14.15262579273672 0.23922341190829133 15.550848168151237
641 -0.06892594822469797 0.8537490755159175 -5.679985122276268
3646 12.235317599809653 -7.533295595227355 -5.133085591685811
2479 -4.66602917397814 17.754698196340634 2.2109097538426665
1505 22.541278258806383 -8.83456671088968 -5.6136293094067335
3265 14.522106433135207 -6.093694273166045 5.68358796881827
1172 20.987823929088897 -7.433261728887107 9.742932187282532
325 -2.605156761366933 3.770103575241108 -0.28537758837245814
3636 -26.199160063876853 29.159389998163377 -6.1605031254427285
2187 -9.1256258384703 6.701221493626132 -15.012123254739807
4232 9.765310054381388 1.20166532383925 7.14089297757448
2445 4.987223843785047 -27.241921354341258 2.476854845530434
2794 -6.445814966544816 2.427925396935902 5.405347754459793
2976 4.289659306065283 -4.370053465932643 -14.664195819785593
568 -8.790403619230448 1.471928211461504 1.3677363535887392
3834 -9.012742868538584 -6.946475429592849 17.96178739593523
1641 -13.21679755741635 1.8235254643811838 11.943767341405623
3497 1.7543577410118 -5.972499726075056 10.809190358938299
2412 4.253563484369416 -12.994246330618152 10.018279251225167
683 -5.036738678114499 5.152781092461024 -3.102128551425169
1286 15.96233785267183 3.7550373918665834 11.923375867506282
3629 -5.887812244453899 7.075192886763891 12.049435961574844
4293 11.445317895295812 3.3185286784802086 3.3483891540032564
1470 -14.803137873460845 1.5432516191314134 3.8439168612885
1997 -12.637559401198255 -16.060628966234447 -15.811855630449001
622 1.901296253713741 5.659097325020265 0.295013482451484
2347 5.819514613943396 -20.361275462352534 2.9117607718476366
1464 1.543090102191432 2.4151302360285842 -15.665343912819438
2716 -12.605949456732727 -7.831905194532595 5.669116217103837
3304 4.554411442738631 20.06835160262637 -13.71821836376626
609 6.39498464992423 -6.633780329331156 -4.730002209939352
4207 -11.648071193695033 1.8442593359296653 -9.802991536579302
1538 -9.004399112899195 -18.868707735279976 0.7581144401374027
1209 4.131206194739977 17.129124827547596 -0.6778693352897532
417 3.09810247636953 -3.5995602348210096 1.6392538838442445
2362 5.395343593729388 0.08599969290020727 3.111674304776719
3277 -17.086514627998778 -8.595764293716249 -4.269930703095854
2950 2.3379139473505264 -9.599956148115906 0.3066503263226845
4277 9.146787522798949 3.491858279192842 12.545771708225429
1347 1.0305858578971279 -19.775087688020633 5.9799964756658595
3635 -0.9342402610848104 -8.82748031439026 6.76904798378479
3855 -8.187353135021844 2.321346663838898 1.2398527201020277
1485 13.26319540939708 0.5220369817569886 5.325670683770719
4073 -20.528620118472958 12.68497481091528 -6.87830432638791
3120 -12.870483795050053 14.58289705559537 1.2535516070601822
3256 -20.701138481304884 10.40316742678883 8.325298605545607
1345 7.642748347002526 -8.468793225484367 4.091661611844278
3330 3.89195041136937 6.720457374400858 16.428750234322756
3321 -1.7950759511851135 -8.452311450521856 0.9885133946392513
3011 9.959416330690408 -13.641241411101051 6.440819502715538
1523 2.870253381338687 1.5834104846716008 0.3123631671799
2678 5.095677066379394 -19.989911123320525 -7.105111614735167
4126 13.706655588205516 -0.22404627612772524 11.225693856218358
3042 9.83661537945979 7.627061448554377 -14.06936618875124
219 -1.4533314206240975 -2.8996617476788282 2.99301375434302
1237 15.474349778236888 -13.847608140066255 -3.0077536025661686
1251 5.428763766433336 -3.743129662793953 11.132295050437463
1577 -5.209224793650153 -5.659010537643491 -7.042048595230116
1325 2.5853065519616134 6.212656228810411 7.21818713266511
361 5.508093986090991 -0.28242310369309326 -6.297311163962481
1679 -1.486971143163138 16.602557889248587 -3.6661614465546224
620 -1.1058204155739368 7.355327325960621 2.926786959961731
875 24.85537559543485 1.9632232240792094 -9.634480043488423
399 7.495507934065482 8.398236830102856 -5.304669514087195
4128 6.840726312846731 -14.723592355610585 19.80673882637784
3816 -15.884354847265273 5.0666320363724395 4.286336906324734
131 -1.67967844904706 -5.382040099858711 4.64359344697659
924 1.2506340010007158 5.993702349529852 -2.756268521006621
1978 16.614347122258184 -19.538273729646445 -17.50696468540363
1988 3.555661987008058 -10.526885650582056 -4.1401090862973415
580 5.403541946767337 4.849561599319071 -12.84333966126604
3755 4.245291645629597 -11.225669067893259 -21.49391543746662
2764 -2.936963066768837 -10.255612632735595 -11.012303813944333
1603 2.8154477717813857 11.792821268535736 -14.173695090484621
4146 -6.5207671418199755 -19.068051971333418 9.679376637915045
255 -6.691253192870918 3.2759384367840223 -2.7404074138870786
431 -2.1682387859330867 -1.688041358468505 1.7652975360789178
1499 -4.241104729371601 -4.297182000360796 -8.505701595235807
494 -2.538487985760044 2.75105200517131 -8.960590500246996
4159 -11.057794927305958 -1.7913536957322964 16.620270053358283
1298 15.449407023592798 -21.014186011999637 -5.617171062214374
2859 -4.173217053627414 6.776452600477091 -8.13975499348094
4299 7.609139295555442 -7.213062214388272 4.037253380669783
777 -2.223736500939203 3.8616972772193296 4.906014744922129
4243 -6.066558800334744 -0.9272506205305251 1.8238503181299088
1365 -19.07056827802998 3.099940842807859 6.758191493075905
2242 -9.033652650035886 5.1950016174646105 -3.342765349047683
2674 -24.449506450985925 5.906735565706191 -10.34669756959226
363 -10.202564057931479 3.4061938659134725 -8.017138388000772
4055 -9.754810268161865 9.969715573341484 4.773869938827864
684 -4.484242116517616 -5.784849105853675 -10.864873661396096
484 2.5120024643064864 7.855598171850422 -7.954710150541885
1731 14.895745202862171 -7.238245091013971 21.0268844260315
863 -2.3448794537325415 -12.086162488443541 -1.3018168343440277
2589 -10.113435860674333 10.381756946600792 11.510962146181814
2113 -5.401821398168576 9.796170111513215 -17.794905083540748
1667 32.07131528533196 -2.75687749846068 -12.271088125613705
738 0.2914303482795203 2.299957700373152 0.5119359012193803
2737 21.131590316386568 -10.485290351739348 2.8645293264809735
1260 2.2509552759798876 -13.36663527059152 -0.024150944247516445
3758 -1.2615454284917151 -15.653480423191287 -27.429096897116914
908 1.552426584824371 -3.8800404600770952 -1.7395008844416684
2769 0.5170004333513821 -20.609180820587362 -2.533005264602039
2481 -4.904980949510594 15.463427962156002 18.548651155545134
1785 12.534741547715127 -3.6237473332746615 2.4760094327656104
63 0.5635566589730048 -6.054100235275203 1.8575111004439366
2045 -7.651568699523329 4.703690807790507 -11.827921192823068
3355 -14.91286292750067 17.41407937873074 -10.599353277078452
2205 -22.552789442824135 3.224552925327988 17.078452200530005
2991 18.683194778208478 -6.660850314111216 15.306847797633496
4193 -9.023840055510528 -2.0111405611983715 -25.04588172814783
969 -15.529532861058014 -0.5309901127963634 -0.886702545448492
1648 5.275676972766632 1.0078688271079976 16.6888061570841
2228 -2.481523662673986 -9.9887301397379 -18.98276358997673
240 -2.4792690781058426 2.982252482082636 -2.446090139824908
2331 1.0197452718970306 18.230139294837443 -10.155236501727165
3785 -0.9610117778397983 19.800410239861836 -0.6548274338057414
1491 -4.295007307291829 -7.147873833508941 -10.438445691896026
533 10.734577027131943 1.924408912360045 -4.967687377202449
1217 -8.336337799980532 22.39167031458738 -34.359339946911035
203 -1.6715060844182168 -5.22428813895447 2.9556163011191647
38 -1.714011100613193 6.062501156188925 3.0518147154065702
205 2.4533876273813053 1.8685993430824026 5.181255677587589
234 -0.7071351551838851 -0.7518691319483302 -1.859828545307259
4167 -16.572160732425015 0.7171950677818716 -15.125740199045527
3687 1.6585336116542186 8.708737925374397 -20.62666175056755
1856 -9.499255343089917 5.576772860214259 7.050179437560003
2838 -5.537258156150748 -38.52622600783876 15.400590948878838
3464 -6.481564695971898 27.414771899773847 12.846290462721734
301 -11.294274562677462 1.8275697941380493 -8.075542991538303
439 -5.286078734911663 -0.9407735393618357 5.941328222016893
3860 1.6652340499768177 5.682918000765018 -9.655062330149706
3833 -14.010856825549311 7.543470915735804 -7.190170417626663
2583 17.307291843062906 -0.7537573040224366 22.13477896361316
3250 14.449391215033025 6.14534593356619 3.7380818771603543
3300 -24.37330732281906 -1.455074399882064 17.761492163734726
3951 -10.332348054512435 -3.953876771571004 11.406641854800462
4156 19.27443839829907 -11.036307117964476 -15.447904420197043
1964 -10.208675492305375 -3.980751743845547 16.74643349615815
3117 2.6633956819301576 -15.46814315557985 -3.3248986010837567
1038 15.758098049661749 15.21871265126271 -6.59163146369389
1417 8.988288626687643 -13.962280195533486 11.048430701237772
2409 8.346950122390439 -21.13031389268169 -12.113726393045782
1418 21.11973768876959 -5.68332518897951 21.690819066692978
2313 -16.74851895675085 3.931065342072514 -5.735007439315362
3461 -1.150060177924853 -1.9045847181746804 -17.04014358735195
3977 -3.2266905410239035 -3.0015811847525358 9.256263842235986
802 3.9509354601754225 -2.9579700716879533 -0.3290654607425767
2706 -10.992655694622275 12.433110467734215 -9.874814572191791
2125 9.323817176732044 -19.472984701399003 -0.7054257942214006
4231 -10.883861509555345 -0.89187020811716 4.347907114895746
4228 -22.570487689718576 -2.2414453212749996 -9.832558747978414
1740 -4.828911900894562 -5.97137627147188 12.996460265597287
2340 12.511125831952961 -11.528345211226586 -6.1250796407465105
3447 3.330676180543866 6.233825243732863 -3.9315791815126517
1113 -8.334949297223558 0.7065476355679334 2.4267877467872805
1477 15.62476172375919 -2.510665522042494 -9.961661794767055
1195 -9.48842477235759 12.471935405503794 1.0826979555187937
2954 5.671021898195334 -3.53520055859906 7.672987281415144
3107 16.980687754648066 -11.809333209439073 -9.310463810201966
1332 -0.7554507134587305 2.8130999550689726 -12.941490892407021
2730 15.72964693176122 -1.4143014417766466 18.43815487197255
1116 -9.095790209670575 9.106749142307429 -9.99250879296563
209 -11.140418533821133 -10.312771957669048 2.748213966044785
498 3.570205973977814 -5.554436148490655 7.15481280984979
1968 6.869497223510134 -4.1603765811204685 10.018473863248682
2853 10.574311645401758 -5.312610354134883 -0.6340885863007255
2105 -1.9858081055747265 11.087138119134812 22.244489396494455
411 2.1180882473944984 0.5234403262721621 3.4485353447285747
3651 3.9586568847866914 18.694649474834257 7.7077992834137925
1022 -8.10264636730203 16.36942011845326 6.351909995282339
2171 1.3068788888235667 -11.522225975299019 4.660630876148998
366 2.588892439124806 5.235189232741976 1.639009859743239
3631 17.72001884236544 -15.756991234584975 -0.14468345378567957
1478 -21.47412878956482 -17.712591683320113 3.556120062381246
4255 5.009860006068123 1.6733598534682852 8.862381123432064
2418 -3.895488601448645 2.551672531444667 -1.2411368022714937
1423 12.940591451069311 0.26221632101529296 -14.015959402579577
443 0.4266374705638678 2.869492884196888 0.5655863955008373
2207 19.307653716964936 -1.1727628465920743 16.423703688781558
878 -13.928933495995524 -13.414966441338896 -15.585883558668959
3235 5.257155150158874 5.052910882797873 2.352478334086073
358 8.362620285105962 3.0430157893082157 -4.002953047326551
4033 -12.989520710504564 4.715388580136516 1.7877954151537028
601 -10.991421334208834 -0.8786375653182477 2.3792519335414157
1405 -7.504181521615709 4.800524185142126 -7.9068794796130035
3216 -16.77337874707068 6.512317922013792 -5.333413147749637
1403 1.867679648522739 -5.392180178875904 -1.6758067400061492
54 5.981390962193379 -2.616378868930665 0.19819659882493174
2535 -6.0403395851892085 -5.942196617803418 -4.45220010567178
2918 12.461624102117387 5.362265474306591 -8.715046415109274
1984 -5.384922336557469 -17.690310500419926 -2.525584056662483
3063 -2.063749426389992 -1.869876703944108 0.8413364848808179
549 -3.427630340108156 -0.1956038394627817 -5.403019887301953
1443 -4.417160465856006 -5.402360251277618 -15.473935023287668
2480 10.252851049492396 -7.566395481935637 18.652262285577756
2350 -17.553743408919352 -9.590045277811052 -5.119959987961651
1578 -26.345175695179666 -6.724191887983794 1.8548558631341274
1323 7.9235051162854075 -6.336773647697679 11.550713715728845
4 -2.2592407759728785 -1.9421357762910134 3.645887761257558
2392 5.790627968197469 -3.05411096232774 0.7671012180650757
3318 10.953863777899947 2.1619223718073415 4.110235965133541
3339 10.687213076546835 12.599450778479412 7.514439573502047
132 5.515800288195437 2.4664927946630875 3.753017264935213
1991 4.609398859185187 -4.776157241049613 4.315855422614207
3714 4.432246491639803 15.186620080027547 -13.32386895747312
3446 1.1971627529463995 4.949953834638604 16.44864459493255
2892 -8.054475107169264 21.64956646418738 3.183752213951217
1717 30.06225674381071 -11.584894036688542 7.708423718755469
2354 -15.62453751356761 -31.454379315534904 -16.366489965078113
256 -1.1788394947362673 -0.466341703433575 -2.2865327636693142
3346 -11.919056574440127 -19.84523423479591 -9.206957888704059
917 10.749545414333344 3.9128159473159467 3.407296651090009
337 -1.1380041519521242 -7.491204454050046 -0.6210455115934402
3686 -5.092845876447807 5.805134034785245 8.677037924207893
2731 0.5435352030411172 0.14949340031890526 19.29486136471206
2322 7.064527061543822 6.945576940478619 -24.897926222089737
4313 0.09596557964377171 -16.769235106490154 -10.955596112042487
604 1.5455148782087293 -3.7797489630669343 2.4420077410012246
2968 11.369008889839408 6.268298456739404 -5.7406774600941795
4021 3.001407266959705 2.229312321793767 11.255705171136908
676 5.362775034575026 -8.399008919567951 4.444909773595567
3111 4.534239606524134 1.617632213122016 1.7931920184193193
292 7.615599874697407 5.499185754808952 1.2983821802578621
3108 2.4227646287651283 -9.998668910021932 -16.890685937692858
3917 -9.987377390050346 -22.971968198461727 9.546132994013778
3170 -15.856480410716262 -11.46497654592839 12.284513451166882
4301 2.304868313159106 7.247190512436327 -0.5585165966736401
1400 15.737477593634337 15.375951068296445 2.790817860460322
49 -2.82001570560266 2.5025234792370648 5.245280121474619
2710 0.9165368483477462 -8.340846179367796 16.51705661969346
2182 10.509268476596672 -1.9460475050587722 7.222187996344704
3657 22.464008271673784 -9.528026900539752 17.46783519122643
1614 -1.4109355110341242 -7.780681694571964 -29.774353799611966
2158 -5.276232551247628 -0.5063392389537319 -1.8860628613249504
2576 3.491200399030632 -3.628429730966084 -8.449890167804233
298 -3.0847477524816043 -0.8046794882439597 -1.1276608817783247
2374 -17.590547591024656 -2.2221172560989295 -0.7675728157161315
3800 4.968194314105265 12.55341356137102 -8.730255204152202
1872 39.278134439944665 -5.85524728831118 1.5743126816032706
3356 -4.337546125814421 4.8568587316937295 5.305510957937079
2368 10.091336256557272 9.031805111087667 -0.5888385776984231
3293 10.549331941391658 -1.9974464327465182 29.29978173073772
1746 -12.1740464550474 1.511338323170395 4.468955001840883
4226 2.6556211317819574 18.479386481266104 -2.7839404534849965
488 -5.084913885594589 -5.187596296136437 6.0662595052839485
3851 1.605906618063619 2.255469162176311 -10.849146571823903
275 7.41293786245355 3.847378219302263 8.279904175217487
751 -0.9054102973566627 -4.869013758274098 -5.421198636136578
375 -2.648569004528886 3.246699072645796 3.8074888389242227
2177 16.198826573744938 -17.74698944821282 -16.924313133310942
278 -1.3894776697587914 -8.890771841054036 -0.9719508602256852
4315 10.210680948419444 -6.885705870020124 -28.77662876266817
1442 1.2002354412204506 -1.2934882971256516 -1.9659359269754098
4046 -3.4191397822258365 -7.051521727472231 -9.169491273609946
2711 9.54580943642342 -8.10403650610595 18.71047597590984
2927 -16.49725065059893 23.893436206390763 -4.526327114729354
679 -4.921926374540755 9.346124920446973 -10.582795430746657
2131 -15.082665186732052 -0.21178448649214138 10.478314398708564
1474 -5.515623245261597 4.286008975459625 -2.545433986115864
1906 14.963449925557896 -11.454349985491577 -5.216041021762145
3477 -20.202587523815787 -1.522660762515721 -14.032217838627696
780 0.22545773574365982 4.498167253012933 5.104882595751224
2847 -17.35670169813884 0.5816995720863392 11.994442890533582
4011 3.233930001675837 -4.235643805218492 -11.929156024859447
3427 2.9189216972359064 -5.109384416341919 -9.821284255553675
2631 -19.76933799830593 6.261446453727889 -2.810282926046743
3246 -8.52978972184639 -12.286015575766227 -15.501153231120131
2491 7.977281468900821 -5.927070868125341 17.21392212991358
2886 12.20701903192446 -5.480553363411789 2.034761880617407
134 -7.597167534981171 0.316415529428253 3.769147564117038
1530 -0.2671571622674141 -10.021911625521044 5.139329191214709
2565 0.6037271745946374 -3.9425144739542155 12.55180014526906
191 -1.3775059056029355 4.963257927977073 0.9666637612155485
1301 2.611918011476997 -10.286319233114183 -0.29090380750351774
1056 1.651928731476961 -19.530024787528944 12.647163009473863
939 4.064077367746744 2.075506005692588 -26.26014626063182
2454 -0.730997100326339 17.956838328353463 7.251653673134742
4175 -7.715478395434964 -5.1988882760891775 -17.589162137589252
1954 -8.142083891820812 -3.1635271177132953 4.224410296505047
749 -3.7758395759549166 -6.080489376881873 -7.477742770644185
4127 12.34823168495761 -22.294807126924383 -27.49545885563943
2713 17.18536257702206 7.391967716282455 -13.684142137018705
2893 5.223351729290967 -5.117519041180619 -12.34115109314374
1533 3.7254162706528753 2.5095234930093464 -19.072483394087786
1129 7.541320106114885 8.331411216686186 -2.203706545432058
2316 -20.926929220958602 -5.4470430466024835 -3.6346592794756822
3244 -2.597776383861846 -0.16864583873252234 -10.856422244272034
1100 10.572899042538154 -11.618420453561352 4.432047518125792
1346 9.490386660439674 -7.061687155166206 8.452150175528914
2292 1.7502680224742704 9.165065791408178 12.112731538189413
1815 -9.784509872908906 8.44847700461509 34.04781416526884
1898 -6.706172512399684 -18.731351003335963 30.835334888153344
1064 -3.371369118535637 -6.27726018392441 -9.445377799801012
2181 -20.41715611601902 -6.000819070591087 0.2672683733544816
3633 1.130521048679953 8.78430495697448 11.307195195031781
142 2.1522940267456154 -4.805550581144365 -0.9635950419812601
265 4.213895183178404 -13.175820794292633 0.018599317777156423
207 0.7072125430588795 -3.1504243416156212 -2.945872124044791
475 3.8055073411373264 -1.8685413250269371 -2.9413908225568113
1238 12.082652187463799 -10.599110183995398 -25.171871192289434
2293 -10.165234336153551 -15.193041826246457 22.25575993657498
2723 -2.6225806367319175 1.1163578038991946 -2.727195474261122
717 2.6009061332873276 -1.5637561698742803 -0.09573489251120089
3091 -10.91055813322082 -19.598724717314237 -2.5053938068679407
155 -5.7725710125989 0.11244595412853373 6.037562698311651
1913 -11.855320447490138 -3.7013072396850575 -10.41837873998142
1004 -2.044276072284217 -14.565626230885766 -5.517172164647783
3186 -9.293770787238472 -9.060870450934134 12.255582866879111
4145 -1.5585303190363937 5.26386588850094 -6.208540444204832
2289 7.365480906367624 4.3098425294869305 8.052707436082757
3368 -6.604568374809517 3.4698713012441993 18.63252107720382
2031 -3.283519593524982 -5.509930739556643 8.606036713882093
1963 -23.04778583461045 -9.077612934609148 -6.086430060677744
2698 -11.421659787655067 -16.638284672160346 1.119339324401567
3280 -21.849047036100355 -18.202072755712404 3.70712887003136
4295 -5.282701119307645 -2.1475280869187316 6.488120779796802
334 8.376305206640922 -4.1731745168929635 -13.706565166966088
3599 -9.298512446975787 1.0683738545627595 -18.344803909746485
677 -5.024575482621418 -2.9963900475268854 7.05888775232957
2664 -17.188940114977427 14.071612544926305 16.69019698249052
4053 -2.140230912765212 15.600334817708454 -9.646119144159831
3949 -11.625117405589922 0.7637046045650647 -7.434617355419261
2540 4.317405442879312 -5.2137128122343634 1.3233084269335893
3931 10.035500925536402 -9.036879144138206 21.335954630431583
3004 -14.626781741538181 4.667836864982701 -15.075443148715937
1275 -0.30485616356785933 -0.531849923333379 7.329580585127463
2955 6.763919960434233 -2.6688845294348043 -5.005666780691285
1492 1.4713623522942783 0.2855494849396437 -8.219534901784616
2868 8.892480491512348 6.347561999293279 1.923374580417022
2846 -0.7228566006960857 -6.782129861605745 -15.677938228196316
1632 0.6197019321481779 6.763889572693971 -8.379570828979046
1847 4.197423880636168 -10.381355845422187 -1.600259959261518
1235 -30.030197120943214 4.323527019979066 -4.854632771391925
2015 6.159379067540644 6.456304754343273 31.861926972394155
2938 -2.4620552724603497 -1.0742333843141998 12.911125476846724
449 5.482483900539285 -8.554595077942352 4.6521530707193035
1795 -0.06660125733937987 -1.0113382411484395 0.4979289499806857
3283 0.9590866109488834 0.06408647027250954 4.658275132302978
2841 3.9300615222488187 -1.3161458428593231 6.933788773968752
4239 -9.950749833508338 -2.5295739937459345 -6.229551280325098
4253 -3.0551228426316617 1.5341593565762053 17.56910136192477
1102 -7.3727859661203885 -12.596956522601483 12.77987785400069
664 0.8478134012504444 1.5555892733669092 -2.350992433570941
869 19.6860687708808 -14.066879955113043 7.093245872025765
422 0.3959086493598619 -12.185700034830347 -2.0022789393619984
2204 5.642692778150138 7.501576700092608 -2.2842266030631966
145 -4.933128734091 -4.014151678798393 0.7082656724241383
2190 -14.07798491061069 -5.327931457772113 -2.0700984430089933
74 -4.427534566934304 -0.025148574755436394 6.441143283158305
170 0.5182407954862935 4.831070082733393 5.21244399712556
2230 9.177360660058078 -2.6155238228226336 5.64033303104819
3959 -9.665971563882737 -11.702692449256359 -8.03004600238158
1164 9.631526372778234 -10.063726404963468 0.28998990659777385
2738 49.40563593199687 3.6846441905595206 8.488417531250292
3367 -4.612158977620997 9.84475836313416 -12.50194808808314
582 4.08320428677671 9.97660027215259 -1.7010180949079257
2020 0.7636545479213176 10.362595167713259 -3.91411397673929
2574 7.084122986721296 4.0623314067219445 -2.002829258449784
4244 -2.545519497631141 -0.5691148522375241 3.953165415794321
16 1.9987169909063782 -1.560269382652444 -0.28472778159848827
4319 19.016032364554786 0.19638081782547676 7.6320795611273
4230 -22.76877654334597 -1.7246443564953295 -4.640906621014024
4307 -9.262268180405655 21.50874413603676 -6.863050187478484
3978 -7.931712876602507 8.406002093633514 -0.6119423414132845
2707 31.148809164404184 8.950012484448916 1.962783874947271
150 -7.608598983394767 3.976979351410334 -0.24168812012349447
891 -12.274026188730973 14.685055415738477 -7.451087161466516
1865 -0.666380128047402 -23.956595670847047 27.23706050057794
1773 7.972129834219332 -18.636841256416393 4.952927960288521
3674 5.075501279628358 -1.3242816816570475 -6.95826737048448
12 3.8564343309373825 -5.0032160946006226 8.590635351595802
2363 -25.70467343798152 -9.84375072938021 2.8548280344812778
2071 -7.501158332351867 -3.5952376023889303 -5.277571091455512
316 -1.843787221250656 -6.700862930388852 6.217122927733929
397 5.372853688866827 0.9716256616882231 11.380724276203198
848 4.298667751159464 -3.873873314804523 2.807163616390745
95 1.1928504298427958 0.46188693101703593 -7.096647234263709
1537 7.094895813046167 -11.724690457865131 -9.376624409620977
2468 -8.974493845113013 13.56834850095969 11.136826193542785
2904 -9.536496131424226 -11.306384748621664 20.918606953137008
2619 8.659635863441984 -5.363018437363069 -11.844917086289747
1902 -5.3123471004878695 12.12929082317744 7.1525568633111645
4302 -2.6783098281783078 2.8474237820175747 -9.759232179345117
642 -5.518282859608822 -9.99463589115957 2.3451495642955273
3562 6.369723543667317 -15.551736745186773 0.7541486867175673
3199 -11.976142088208176 -14.765501408565951 -1.0398224637885598
4270 -14.038933008189195 -26.07202881068358 -1.9759950508779274
3449 0.7415002376920952 15.2818450532989 10.496456832744334
895 16.070821983804645 -8.532012231292445 6.719439696003412
3222 -3.142681443683624 -7.950463545607494 -23.820041043828784
1573 -19.836350149074253 -9.811978868134297 0.05612027493147816
2485 2.46596215496193 13.630421584299174 -3.1319085044902484
438 -0.07414417791277211 -0.5808924372948164 -0.5513641533017861
1482 13.532011025849704 3.0994737258841463 27.50284310411471
368 -1.5866394954044702 5.052105255602476 0.5650439312515735
272 -1.0954204903901132 -10.420252875704737 -2.9643276677224146
921 -1.8543379754792166 -10.764827761606885 21.611780829757112
3844 -7.684887783836266 17.405741553265898 15.96650813338963
2488 -8.759669960125102 4.647770066653464 -0.9997433447404944
3804 5.0826268410486435 21.244929273958242 12.865626326570728
2543 -9.10443165295728 18.524775003166717 2.3491090841652165
3647 -35.19110904821464 3.29743744170318 -6.141965144469583
766 10.609088828684673 2.795097027057897 -0.36937462859319903
3843 22.805973813195905 18.331173570359407 -2.4448129576873034
758 0.8414955164348901 -1.205262304798383 -4.821134120043382
3550 5.150906707394089 -1.8605786337217443 -19.5594622798092
502 -0.08091273888660871 -8.209099634385339 10.718583918512383
2349 -4.451680028702522 18.676804284391057 -15.604431522548982
1610 29.670580074721656 -23.435859355869212 9.508072943643306
1165 -4.110258584515019 -0.9540787812641787 -16.226702414762826
3432 -17.099540540187924 -7.614432182392209 -13.424712402191668
1263 -4.526863072591269 -29.050480021150182 4.558392335545903
634 5.252694332365842 -3.1001023048108087 -1.7087805792626616
2856 5.429147452694439 -5.53040712415612 5.220109667889773
2836 15.56258769190157 7.813072682519457 8.05740992526605
3494 3.395717863586436 0.4099099949892498 9.928007117626723
2199 3.244426241022522 -14.843791217987944 -2.1787444302052337
3590 1.0416720303396285 2.201953505286617 -16.248651732589828
1604 -22.566079057032322 -2.8618884666657594 -1.2407515310453312
4138 9.129843237213679 6.499765850248985 18.584579401988016
3512 -14.284006205792227 4.789725802127075 -3.557902821345962
564 3.1481445392995675 -0.1720885312026553 4.150122639945671
3218 -5.957754079309282 13.851573225645947 24.266154618590882
3248 0.4917879421864039 -16.944565902202292 10.251032755079128
3431 5.378096957819825 7.201388754798826 -2.5720552387655635
1752 -21.056211413390574 4.038180730884251 3.7887553614163667
1763 12.312667545952523 0.8135226216914373 -3.5433089361366172
3179 1.9160237250245917 3.769489959655006 -8.261120695699471
2533 9.66727684628429 19.90373822641142 8.013952747229109
3237 -3.9718687982236838 6.767548806742856 19.169130861300353
3263 -9.807863463627088 -9.515185522283799 19.369783869379695
3767 -13.439493643168099 -13.3690830009058 -2.0593626539353167
3612 -15.9967357994177 -2.722577757554885 -17.6359631032526
2157 13.989761735274673 -9.594051080387155 12.816935292792614
2527 2.906839673141066 4.9752705026869615 -5.155231189704188
2544 -6.022214866013474 4.847519112324154 2.0520318224194924
1447 -1.0705621300250128 -11.326562950813699 -8.771957541077466
2656 3.1085145240554826 -4.147048219429648 9.698893358105714
1887 27.2791876326949 3.7474538117347915 -8.793654120846062
1678 26.742597038634177 2.5766655510475527 2.0252421897910957
3243 16.10116179014503 -6.006159295598235 0.8835934155935844
1072 -0.2123761954351112 8.336958613622695 -14.18302739022694
3096 4.85068372781527 22.947884482653148 -15.595659963096859
2139 13.953462627229841 19.36653006027338 0.9310164206570344
2381 16.827377115983545 -14.351990216992647 -1.4874833339179139
1709 -7.390004873131282 -1.9503237877575015 -13.945308678137192
3515 0.4029731938891985 -9.26327889548921 -0.36520770176724565
987 7.222063142784346 16.443962598452917 10.2421343994902
3081 11.348017360793186 -0.9208295266704256 -3.9098936785648077
3990 -21.878060565949873 7.281650557748983 -2.1767754286809695
144 -2.1554790331187648 3.69833001071071 8.01266068767608
2709 -1.8137193481591471 2.259705725097056 -12.331454014324637
799 4.834334285925692 -1.1414196420489917 -10.500567864861406
126 -1.15080336056032 -7.485096983968548 8.292479773031701
687 -5.457335959395683 0.006916557120432673 -3.5075629249483637
540 -2.132851175107727 -4.134303856384412 -1.6955751788850553
1488 -1.6716243643407447 -17.86260644136338 -2.1337686820504986
2672 19.85261875136426 18.411926896080338 -7.566429874779174
2172 12.902319319247573 1.6274781072699869 -18.518457315801335
2196 12.06864036265183 -5.7210367992549545 17.771522811552845
3226 -3.8773383129818235 0.08859369376821813 -6.53134729220448
2757 -0.8953749923519195 14.188632360441174 -0.8294553688810415
3290 24.692882280226563 7.844159719470235 16.373914476530732
53 -1.7025170258116524 10.036353093068815 -6.6958348070657
3403 -7.988305154649525 0.7486914925484984 5.249073174967019
2117 22.30655098298052 2.267447112602923 17.9283907543108
1003 16.354939651108293 11.52736669780441 2.422330368425351
2037 -17.430321813036958 -3.6721250672820394 -1.8720276973568921
1006 -5.9660689781203855 -14.49508473194651 -18.858083288408334
3149 -6.6682080643308215 -4.348007834330984 -6.350248626667781
3956 4.37278588212733 -7.1862223811461945 34.71958691002993
1639 3.7552093909285906 3.0842438077474923 -8.999810821214421
2835 14.227233252577319 12.799023039725531 -4.365353106276416
3726 13.215208401771225 -6.017526002225221 9.442821831705158
1506 -21.990122163228946 -8.603885910591513 -2.2006757015774223
3549 17.711948949509168 11.498415529786516 0.845026014856062
3294 -0.9892428568312736 7.00779730464753 -11.867024525941988
382 0.23611571849413932 2.712178380285146 -7.640701088483766
2052 3.868677111337643 3.1831486300652814 10.148488498974771
1727 4.141957623940914 3.8409288812604947 1.1842061064950216
1907 3.2282718683522473 14.133104807045598 9.570024201522632
1640 -9.26703214839384 1.08358953770808 -1.470947704081622
1699 15.489938495904031 -2.4482137967677358 3.4507822327922493
894 4.897902048690899 0.8015449831061534 -15.649355911751188
1300 -8.739037345738625 4.713185731205992 6.539568477197721
2183 6.378695824580867 -6.098889714189164 -5.095490982557508
3343 1.6629367806244986 -10.558988328904265 19.42972348593206
3679 -12.895038774030768 -10.83939954997906 -4.2584883181084905
1868 -3.6090604789313305 11.971516568690806 -11.36847897589672
1353 -3.9692347632903475 -4.6961347735868575 -10.247263484312906
93 -4.606270720879054 1.1930389701077284 -2.82163494488468
3709 -13.060921733591659 7.348823733208795 11.258576832093468
217 -0.26587212043247394 -0.7030951157567156 -9.236228693482474
823 6.719497526098644 3.3610266417517 2.9367920325012964
1266 -21.015604728192077 0.6648098107918092 -1.3581023355354345
716 -1.1973075402636317 -0.04227157987942674 11.263481503803773
1855 8.082673724309112 -9.793900845377427 9.73141370607057
3282 -3.0683686449901426 -2.022163715134089 -12.407913346339106
2153 -5.870749625398427 -26.946153615578567 5.213318700186808
32 6.817193775364117 -2.2873806359412243 8.753658891839542
1368 -3.8107453653845274 -4.999718304588327 -1.4893795493579636
4252 -16.282015487894398 12.75334894145781 17.045457227957844
4129 -14.650877156414008 -4.561841171092663 5.6378380706189075
3847 -18.734801216290073 -22.326749625139865 -10.464181199839054
2734 -6.499233768846265 3.403096584933721 18.728513939105863
3740 6.375868767676209 3.6228123226706384 3.6407903471585907
2970 -2.8488376162156266 -2.6598130161048252 -13.278578301025679
3315 -7.869468240975873 -8.077269062367044 27.350214840944115
4223 11.009891513260811 -28.74002476553594 -3.8519449295772774
2520 -3.7643751253289035 10.247309195878833 -9.102872558629292
3145 12.99259652785607 3.1559449400844795 15.735820578185193
4104 29.588514491402787 27.235061987054426 4.256601002816341
3729 11.245453751798996 -3.0041599431854538 -4.224648536746535
1883 20.736911563944858 2.401190531925893 8.280781680617743
3858 0.8310050313235087 5.50553099095215 17.56340900904668
3653 1.7008982582292207 1.2007085577643644 1.586538462568485
2355 4.41384838738633 -2.9669474803491225 9.069795549734948
920 11.665913009913249 4.7157800451129 1.4355894415769106
2151 2.7533855486249834 -1.150700973065511 6.98739297995821
2058 -3.0089302153831348 14.826994353037186 -19.129116588595796
3809 7.11200282044655 2.167882649206428 -6.383305689139676
1008 -28.31730486413318 2.119547278472593 -8.310919929752266
3756 -0.1648726008762456 1.392861661463073 -5.014290142134169
4250 11.364455425281978 -21.924274208061618 -2.644232192470185
1686 14.101520247860211 -4.142819862484789 2.6962170129485807
1670 8.658511468031854 -5.744944302836502 8.512587657818093
3861 7.183270241980025 15.735014822879673 9.978033125202877
753 8.075589895785427 -1.3064124225842133 7.3790710614397605
2650 -0.06411506670939812 -0.6661530737401433 -7.386641256516353
685 -1.6527880257463416 -3.1105097736303655 -7.855056546095312
3846 9.172313207431218 -11.41194711977114 4.09873680229982
3794 -0.32358886453460034 -17.024683781382993 -10.407138355234789
674 -4.5607491891827285 5.861803925923707 10.319502571485344
3595 -6.216188332890171 -4.222352313545041 -1.344422915944624
389 1.5549595241894898 -10.29196987262743 -5.278014513918059
140 0.16184636516699846 -4.977960673840166 -2.277326067811607
3960 2.8841683825645283 -1.2908758379692076 8.916052005109886
3144 -9.934788380201198 -3.872945512159772 -16.604947043871856
1002 19.942907791768878 15.0926828191843 14.244872917071909
829 -5.38433792214858 -3.2211173033581373 1.5643330867875058
4199 -14.138736134929188 13.861864595268031 -7.058573907845031
1914 4.671379804462801 -1.117994376176598 -12.972452515847412
2147 -32.839150582983095 -11.599091020096958 12.594501493312977
2977 -12.412150887408512 17.360392946764 -8.695411431358396
57 -1.8475396449235455 1.0821790280069417 -1.9708212623064532
3668 -4.465868878470996 -30.322813147073617 -6.787507261201425
3485 -11.422484790640915 -4.17267467863574 -1.2305597170741234
2212 23.275566031600057 -0.46303813266949323 4.690230500098956
329 1.1528577335952515 0.9080480549919603 -2.8983655038649196
2337 -16.619901972223623 -0.6546374122273211 14.503399622666032
2470 5.2167952479556545 13.75245465290366 7.8503225579857885
2474 4.420514300394068 -14.698437300975922 11.674601248555224
547 3.3758675028764418 4.970098231111765 1.8953870911887047
3344 21.767551505536314 12.291760218314465 20.484266225624964
2796 12.719067831393838 9.23100018384192 0.28121882868138
1854 -4.969855785606757 10.303231433159175 0.4300824949427032
394 -4.63038415290346 0.969975871472935 9.707586090354015
222 5.156143507225651 0.19860822789639143 -10.137021942943152
1776 3.5014760374815834 4.576092003636108 6.462228364797879
296 5.854732324402439 1.746090623831087 -2.0372795349429547
1574 13.6570695690383 7.756441918200753 -8.121928673543882
1630 10.149485386782912 6.805009577727655 -9.562322746414239
2781 -0.8917812332980292 15.895011246991363 -20.871266401303487
2775 5.232795953690858 -5.553308628519107 14.584542595357782
1822 8.735139636008563 -2.954814308606915 -15.162097538430336
1842 10.929167693535772 2.671219913616548 -9.646478179932618
274 7.207531058148718 -1.726517567063321 4.371982602680315
2871 14.82058084189471 -13.508543639365302 -13.996524081796919
2708 -2.5143329982569913 -5.41324395837595 -0.24316186191018796
1627 11.923661687740859 -22.21387009188698 3.8155108587776927
2687 -3.4806617374372615 3.0669539147828786 -13.98387348692519
4181 13.209037029859235 -6.924134658214138 -18.253340378922925
1782 -1.759897419420085 7.449447658082874 -4.011137489716118
1584 -5.660945868851333 18.09099868725677 12.573453259840042
4283 15.140858304857618 -8.630584573638885 -2.276163705044872
3632 21.253430661511914 -6.135014888025513 -9.353480415243821
391 0.5526992206445239 1.8698054075998716 1.762758477244748
1312 -9.369786169178443 -1.7414636187965873 -4.642909864438858
3391 13.617740629797629 -1.9849958752277432 -20.241560380962756
1711 -11.054308466886148 20.488187340273893 -17.802604796481216
3350 -15.438738204889265 -0.11196059729679887 -4.045481727141893
2220 -17.748187484844653 -24.897928778095945 -9.978181937226884
3027 13.111145211186377 -5.275392988593662 -11.181439227759002
2594 -8.011904610028534 -6.17135891325884 -2.3614132925440363
2586 -4.85011814230793 5.995718644151452 -3.398841315145172
3762 -34.85029083288621 -8.135047853157406 22.86394447034829
3981 12.532908946216303 -14.338752906852088 30.01532687760198
2420 -17.938975445466504 14.579505715508175 -1.6699257377867487
3694 22.783156195650793 -13.630767166503519 -2.51879777253478
3008 0.7803564151618286 15.09753718602103 -17.630215307577018
3786 -4.238209700405562 7.259539987312496 17.565475905494736
3671 -8.631603129919647 16.803119506770916 -21.88392056590598
4006 -4.691494905694325 4.680284258069833 -4.919025439891166
381 4.71251520954512 5.507617896075747 -4.419192694770595
1835 17.37695876899002 -5.21020951672228 -6.638340662529765
1990 6.572465777342917 -11.52109647145361 18.952819632649735
3014 0.4335926869948558 14.80641193569868 -0.25142794676811575
3975 13.724314678500368 -5.425277061334407 16.55298581183511
522 11.64670687744496 5.5683241226398 3.655771900842226
3582 20.250705608931504 0.9390037520343223 2.63135655726863
3349 0.6475856655988629 4.514389306225519 17.769569211761457
598 4.615219328216641 -1.3678771996940937 -4.462554795974461
2814 -2.702931084156371 -8.478808550482315 2.4420771170524316
3054 13.857853884512533 6.921116274955326 -5.394149436719307
2936 -3.860375911049101 -3.339399473793314 3.8892111313743025
4028 12.231539303344798 -1.189862820078313 14.904064786207694
3841 -28.14348967418006 7.385657366513476 7.932619306111126
2958 -4.533324385028784 13.077187107423214 2.632913167833321
1419 9.496863883179193 11.413633875210252 -1.1018379033470298
2881 -3.7709956310024406 -9.67604390310404 -23.65865822080502
3103 -1.832315967958925 -7.2992960394143696 -0.6760932122776273
3764 10.780318630001597 13.468780129075972 -0.30144863661942056
2353 -16.029046956102352 21.175135306253246 -16.927381454348787
1444 6.516957051984139 12.989532935625448 -24.535292766302042
408 9.110796841705476 -1.9672195928342895 5.7300344909910095
2170 -13.617612582577948 5.576003308617213 -5.634055756116248
190 2.9513582934903604 4.550176590348875 -3.562274246830116
508 -2.2626722711683893 -2.9049730230022432 -3.260103797301899
3262 24.88177056622117 -8.486901762680558 -4.79290158913247
1295 4.52423152531082 2.500121730054873 4.935353308526731
3463 10.452306947479636 -15.222120402673156 19.336937603424087
3791 -4.021680016958905 15.318156073812354 -7.833955531789824
3676 8.807440180438551 8.553476555609507 21.56947212700938
346 6.070319554677397 -0.15034364612676196 -3.8897938549416393
2947 -8.678145815937715 -11.122435586152461 -8.518890957145379
944 10.248782475299837 4.678543214171548 6.061643533950557
2663 2.0184771976524254 5.501790346446712 -9.049097499414914
1322 -2.2230452928086746 -11.813829830208604 0.08347059795929747
2035 7.604976031133696 -2.9102693250711167 8.202707222236498
3131 2.3287489105588173 -9.698738260888485 -11.536210374040447
4211 10.242025676265834 1.5132438403383157 -24.396309895011562
3818 5.927721603042172 -7.709417779198144 -1.1438331632758219
3837 -12.79462501092317 -20.542976247771485 4.6597139038662085
2213 -18.25624763223791 -24.730638101815074 8.988758951036047
226 -0.17487946653605715 -5.0553797937103475 -7.741626771435743
1015 -9.392971699565544 5.639989240249956 -2.1438553073055653
2944 28.446342353637792 -21.196907443049838 11.642600460787396
244 -1.8842671592965718 -2.5484323876003563 -0.9828743913510757
1982 18.58652935569377 -4.419466808575793 -3.61987493133018
4288 1.5761570437854564 -0.15019677210064108 -6.727603021579622
3479 -4.365300362780558 13.251227829713946 9.40841201378723
3547 5.89567079383487 5.733095115329111 -11.883201958061163
1121 5.661702409255776 14.031395840111955 9.807332379453271
2974 -16.321616621065512 4.060181485171778 -2.1874585984606836
2549 -10.739385461932953 1.7664726539610272 -11.281126724667839
3402 5.0676418762429245 2.7098022665919212 -10.593010065332834
4036 -8.07438287667754 1.5571438468233376 -2.524184424503909
857 -1.2247973362798832 1.5770022476852184 -0.6868304598232963
2427 -8.415647958196171 -17.672057900701 6.444461668754456
611 1.5949101426149666 -1.6980920242731652 -0.8395701880982088
3450 8.723433850051311 -11.121453632170297 11.979586845375794
143 -8.651419928042186 -6.77180927708681 10.982513603454228
456 -5.38901637534219 0.05022036387622298 4.815907247116397
110 2.3715765064690806 -1.0279203414744362 3.8977358476580726
1316 -22.635142768790228 -5.4811805163212455 25.66729478814974
640 3.4767991818495685 4.024676400204635 -5.5361352122785465
1133 -0.18158484804213076 6.0658633993569735 17.399134982827448
3991 16.049979525580426 -1.4946569235879708 -9.185035380263114
3993 -9.203693192425618 12.73386845346682 2.4228635391443074
2864 11.610039401023666 2.272609484965222 10.250627629614316
942 4.023999772653405 -8.194742073922729 -20.767471620025006
2467 5.436001397497597 1.0218159652767196 -21.70978896114124
1761 -0.5398008897874051 11.191541448661557 -8.24850133309824
4187 4.574068212190309 3.186490104313275 1.4100977512405597
2858 -5.879257172551778 -6.3193501601476 -1.883199182679467
1958 17.517726423976175 9.873599850383975 -8.1738496864286
324 -2.4543578813765734 -0.8121639467690367 1.9985347636281339
4007 -8.264851146361288 -2.253492502389983 -17.477539452140142
782 1.59522539800673 7.3102731443471285 -12.984229731746282
1271 0.6141727822365324 -3.4237983417381255 7.495890280485402
542 -2.259576703978208 -4.383227327197598 9.07983835289974
3538 -6.466509866125404 -0.2821217510038944 -1.0369192122783988
1198 6.296264087685921 7.408602400518175 -2.8657904178615827
3187 15.731768176214565 6.705718454260412 -5.18790041458855
2253 -3.9399181270103303 15.131542452250397 -11.53896034586914
1948 -6.24735978644206 19.663303917507395 20.1625422560602
2168 3.712528376756751 12.475975252084675 -23.343475101379628
2076 22.171293036540465 9.04660468298178 12.82117493721741
2124 -1.7282287483315555 6.654896466302243 -11.089813416129832
2382 1.2419537540076462 9.706662491105439 -14.538305706800735
4180 11.869878974434979 3.03755559351466 7.569576475105159
842 8.050817411842274 -5.182972227183497 -1.2499284164009206
3325 -0.03625622421054794 -6.6369400913059104 -8.738314269123231
3092 15.610005797675552 3.8283083685055552 7.406385333677074
1755 0.38360026538761866 -19.539399135439925 -15.549571274453076
1080 11.316333771781489 2.4588100203233108 -5.103373317895225
3465 14.06406399131667 6.141250878089799 -5.06861575042128
4150 32.2182203303682 20.58774842061554 19.71421490263455
1380 2.506164471464512 -10.218193385514846 13.043654595501454
3513 33.27364995032247 2.043353085308022 1.2394138257410892
4289 -10.86509953710062 6.415048638737466 13.526938523149184
398 4.426857748054995 -2.0236320337353138 0.4251736484525185
3689 -8.433300742926551 8.665943816171023 12.346581212053001
2433 -17.535985131196636 -0.3642534549686942 -18.747529866582685
3470 -3.7999179109898535 6.797472878506589 1.4466668705479473
1886 -9.199902644353854 7.796993530314666 -8.783803642681475
623 -4.093081672938656 8.589407967284131 2.5894955246514297
1043 -19.659720976277704 -15.370139859122288 1.745918853937136
3583 5.503673975060334 -7.185816072980335 4.546291377433868
1768 -9.867247674771606 -10.756409690170399 -3.8861474947011003
3413 -4.812763850125733 -10.12262359161206 1.2004755098021218
2273 -16.75468140271544 -17.11581628558631 -1.48081548576208
2652 -6.490695528035264 0.862248107252245 -25.20454257926165
3601 -1.2377829234397668 -7.115674618609109 3.736166325574031
1007 -14.634402264321063 39.533075069074826 7.8795779493417175
881 6.288069824547985 5.047538452745024 8.518701987223979
1065 -7.245482585265041 21.576684959968265 7.912906808067095
2819 13.343173892839102 7.065212379490656 8.605534262273464
4140 8.564341197382872 -27.22606461071767 0.9061722833898381
1612 -5.750153219938169 1.9158226856788712 -4.129844845617129
2962 5.560925095221293 -1.5139153406321595 4.6277495100985275
1561 -0.49699803792076575 13.543084630762603 5.823958531512493
2102 4.572083629270201 17.414348452442315 10.329505270797279
2718 10.305774502094478 26.459028539237554 -8.205543309866936
864 -3.8302491027049266 -1.8403134085811652 1.1327454034552729
1592 16.30105581404138 4.914736353190041 5.263706464948718
4025 4.449333272848948 -0.5828153046850986 13.365781644170047
1589 -13.563751003573913 1.6988089651747427 -6.37684717767806
2295 30.38508184366657 -13.338392010831608 -0.6923131638320796
3916 1.8962313851233712 -8.227132063888893 3.9755033226265843
2960 -2.885629666652128 -0.44376372322596125 -7.373025094340181
3535 14.243863106066968 -6.897977581153873 8.749726590389965
4317 4.93567061367962 -10.857459692989044 -1.265482609731047
3075 18.07755459781237 -18.969359903124378 1.7045121458897576
3779 18.240468115567815 -6.759795809204725 6.880153440893819
3745 8.541519930629873 4.681210134515328 -1.2933769130659196
2748 -9.896902584494846 35.41359569389135 9.765925547934154
3486 -3.42484779069386 -15.298535038383582 -17.23868157020898
1333 -11.062098822104753 9.944959420312049 0.6136510159898485
2538 4.435932452089056 -1.7381812447070737 16.20158497200104
2068 -8.087313572107591 -6.824706863401373 -3.9240002156631393
3618 5.445213036067605 -4.91068153855708 -16.851199432087327
566 2.926763512954887 0.9471357665966949 -1.0343381231494464
1 -6.822970319893285 -1.3006074867822517 4.566213811620475
1066 3.7577346714843247 21.316155399665167 -3.3260118766291726
1522 9.269549761928873 30.55943764954163 -2.5534775650887642
3854 16.969578161640825 -0.8066411851119324 6.3871514398647635
1186 -3.2730261730737644 5.754804052158704 -6.278350364776315
3898 -12.535294364324454 11.665587064994437 15.71431160396323
4026 -31.74450973369805 10.42732524878945 -27.157390189857022
691 -3.218284643395172 1.4994086099876125 -8.141299465014846
440 3.250064932177615 4.939332873272384 -9.613189113865541
2166 -18.0912967609253 3.474442013219643 -7.282060035028463
3777 -4.089467216484893 -9.167185719990409 -12.631785142893932
42 4.534658773055614 0.48915843952472304 -9.951999717116923
3945 11.53369084455826 -11.542325059390373 3.436480361529785
1547 11.790928658091925 0.5276075397644873 2.806101944448037
3287 -11.058700017282854 -18.203201959356342 4.481288809120695
186 0.4883089734204245 -3.240032226104 -4.971854853814858
1750 7.036022626018916 8.904881393020782 14.535760336268712
1413 12.170609576837006 -11.925806892165765 -12.706486705979222
4186 1.7179231262990158 -15.981460978643804 -1.4818801719014147
3012 13.855731719913514 -1.734091606952487 -2.6498906180633837
102 4.893644238042436 -7.43481566280348 -4.8755305926696515
2079 12.95640789264542 -10.752943918542345 -16.2738750355467
3796 -7.013057064362335 -23.601798345674304 -4.947426743058885
719 -1.2532335307276303 1.5526299058815378 -4.992457004474336
165 -7.278165830566182 -12.011312133000464 -8.650040171286701
2066 35.498024092462636 -2.4657607071780214 19.444072015446405
1276 9.189990350691525 -29.033651176586392 7.0817636016011924
1145 -27.76617510025711 15.017565681969655 -8.295922579942994
1742 6.1264206455255135 3.232379407196079 -6.204808373443086
1265 23.377323801461728 17.855177839978804 -8.954850534058235
441 12.176866982570512 -0.8997603552582196 2.901200229828426
2821 10.619162221952525 -13.8181022091173 17.274974420388574
1837 -18.102901134486334 -10.360408522286095 1.0244971522522315
1848 12.275081301831715 3.7804863186426947 -9.993146218287393
3136 -0.5633850385404109 2.297461006665295 8.665336543818347
1437 -1.3928325792778886 2.330402268488211 11.238136107381761
3717 9.632527110021977 -6.0409880185975675 -9.142658100750278
585 -0.12513317220600195 -6.140856370414171 -0.32958440354125396
2093 -22.06392799288432 8.793223873403164 9.058595131057762
2477 -24.835277860136877 1.247587742929404 3.252092718370745
4060 -6.870907703847007 -0.8253460829968357 3.5741841933895264
3336 6.47944784669383 4.187700913560275 -3.17488922860736
3738 16.439008731817683 3.1484635078077305 -11.552182255052509
2277 -7.597356719391646 -3.4020803266840796 -3.984573770942256
993 7.012638035588097 6.430641446767876 -2.2382658585521416
303 -2.644560131889155 -0.7006342356166901 0.4557521022133196
3692 0.2337079016353544 -1.2353195729728903 -3.193766660440584
133 -4.396404286122473 -2.180378366846627 1.4511722497174813
3079 -9.29007507921349 9.663947875391653 19.731284240867303
4072 1.8137825467975635 27.353182731142606 -5.26936603381211
1215 2.556185938042346 31.41351673922351 -11.652645062291096
1554 1.020720718458418 -0.30104905908591817 -10.695534920826105
2629 -9.282157658377978 -18.89671672022256 -15.311210884823403
3953 -17.677624684211068 3.2536652405307676 -3.0709521578805505
2164 -8.661651352781004 16.78857907899782 0.6008465251931779
3947 -0.11431840281139335 -0.8124377258787002 5.036741154424817
4015 -3.5555535820350905 -12.510608058083163 -2.8992897858650575
3913 4.958128991582799 -12.319857557581411 15.244882504774914
1852 -5.78386374040886 -11.43939854517975 1.152316721015248
4274 8.15784414043083 -16.944127501994448 5.375106196159693
3257 13.102256572691424 -20.831860865408764 20.328664201228907
2910 0.934524475391929 6.4537491224200725 -15.862849985259773
3353 -4.303089636825423 -13.762209903023626 -3.306494508683429
2555 -1.8753139134481183 -11.95740502756645 3.571416884142627
336 -5.151680111276337 -6.684964506133603 -7.7410937321138285
55 -4.511140157284761 0.2516155414209673 7.70964961355727
1635 13.526035989769188 -0.5603917397423658 5.359424501029936
1343 -18.923563302158307 -6.470477669084161 -1.8887869980481171
3436 -17.18370121428078 13.312074701853478 8.108888125368233
3476 -8.875098289681741 -0.9642927657870414 -2.529663254944148
722 0.853907091014728 -3.2124968829078404 6.537157648778814
1241 3.766867691719202 4.137501216332364 1.6204508055691071
50 -0.04622246325119403 -0.7826949361696521 -11.980591506631495
483 0.43561775320773544 8.23493558443375 -3.1794896478926837
350 -0.9404312938165272 4.0277787888187175 0.11738834556649173
931 -14.516470764190204 -37.72867898245539 17.04080413331667
4113 6.73647316824953 9.624063700985404 -2.429996525557255
1461 3.91574947364315 30.99383857269626 -1.7985179339907524
3269 8.164652050468062 -12.94777522493744 11.83318064143238
2635 10.274165020897767 2.4182914416581274 -3.6283728697200086
699 1.3609232897535004 0.04738388317703471 7.350237705484879
1786 -0.8755172060580502 7.847568377472887 -13.109248503372923
1965 -32.42969985906368 15.758262362094854 -0.3006480128064549
4110 3.3579091488726505 -4.166804028385775 -14.338370256183168
2643 14.09345266868066 -3.120363739169416 3.5692838219714167
89 1.8380282439196167 3.5188371709362514 -12.90519585166524
1341 10.469151549392963 -14.067304135719299 1.8243942366195613
517 -0.7769484612334038 -5.775853896435177 10.520823997340432
1153 -9.908613014580448 -21.11363909265158 3.1394583040095188
4008 17.09756555226577 4.757150324790382 -3.8407679557123546
2305 -22.052932557604667 1.588302027553131 -10.83855477389382
1136 13.359646168388387 -16.11643909181047 2.4474132046096875
2869 10.132658910055856 -9.963051330200122 0.14173252116417645
4003 5.645421733628234 22.72263469506123 19.092981075463367
1253 -1.723869084057447 10.124471885505761 -13.725726401683644
1122 -10.810910137287387 6.647535891745982 17.77840616333477
1239 -0.8767401136728302 -4.5336162840127185 10.787443716207589
1950 18.20985030719079 9.384462579006064 22.96493705832412
2073 -0.4306783902627834 4.248339888624952 11.244012854231302
897 3.597769248435938 10.834605486894112 -13.747239950452576
428 3.3812746552367665 0.5894420584734145 -11.494987750692498
3489 -8.060328623018506 6.092056990470678 10.119721211523919
31 -5.460311907744962 -2.8879376222142445 6.648095903775844
2509 20.130678444402086 -2.164211497802092 -18.400287757038445
830 -1.3410010304416393 -0.42062362039522644 3.1092566698220234
2426 -9.958749957767326 4.327894167297032 -8.846004011936348
461 -0.29302083172926147 2.1064685865392505 -2.684929582569914
1385 -3.376901115219367 0.6234533549507776 -6.164001932349093
2442 5.766380398659828 14.296447916886613 -14.462695133181791
1441 2.9931060904879376 19.3367226254455 16.59429289414692
3077 12.57022729290472 -24.596396819009446 2.4662665461750923
545 3.4988787787205617 4.7506335028090465 2.8882624225354894
532 2.0211993711430645 1.0163657457496933 -4.2675234841268415
1427 -5.275134959693399 -11.377691894912896 17.389653965959297
1411 -5.591662630596352 12.338230300300054 13.295054034167238
1497 0.15801449282579594 18.321731530092784 -8.965216438987222
3720 -8.053746604295636 -1.3740040529709932 -3.2514501945570062
45 0.105829972858831 3.438884987249809 3.4190765601717725
168 -2.756594036652268 -1.282107574659629 3.47714158757383
3613 1.0821711328516928 -2.56118107784845 -9.73310849508699
3509 -22.718739143712558 5.856080717534514 -21.17643534746284
2492 13.68863223906284 -3.923693693529632 -19.402796051035004
3028 17.820160330222933 37.54871493980329 15.276777612210825
3508 -2.3366363004550434 22.261116606712587 -1.806555602878087
2192 4.898391687847778 -3.574811444538282 -24.477472662130804
1675 6.192857032439023 -7.996288211946019 -9.933521176005204
1956 -5.501567504567777 -0.6682141165615268 11.460442956821
1809 4.150498180886404 -12.51463706598915 11.664317272620766
3914 0.29192592836574505 -9.712986252093197 -11.752978587692057
3245 10.908911559540359 19.59914555054431 -10.927375151775113
1127 -19.750238280104664 -8.206982081973381 -10.084479139174686
3481 -9.745024264554333 -9.972771467645655 -2.8735396946122957
1018 -17.14965252290952 -1.5351961242239787 -24.459348801446872
1807 -18.627117384365572 -7.2618291817566085 -0.1806411563185666
90 -0.439154523142546 -3.329678395618495 2.179337750556792
2637 -10.620325763601269 15.860383702417646 10.663500560544778
1218 -14.074823967313668 18.109883138375473 -15.63164663971913
213 -1.4553828323807798 -0.6894534190402256 4.530207623150785
3570 6.153546447741877 11.400148495573758 -12.45342064277125
2801 7.296148934091921 -8.318808947542193 -31.200797922127297
2567 1.0252258517440946 -16.904338695901593 6.818988607341334
1996 7.5339768429765135 21.21228458654642 -13.640482099475678
153 4.445659861831282 2.884218986808536 -0.0824642612528591
1840 -2.341211717691882 -2.616577968057027 13.50285743369261
4141 -14.011341394693726 2.8958999230027618 13.362911146808454
3962 8.496755446155161 5.036290087825962 -3.199109153374475
2315 7.2051495811698 5.098511280084134 10.214002526846123
2693 -23.429500238901344 30.61206881164644 2.0044650702440494
305 0.561107074756481 12.697765666942566 1.5028967846184778
989 -5.63654595165357 -5.851411871195195 3.230928752615806
1258 5.347922993681483 -7.759188884379791 -21.046015700219634
1432 4.463673856215343 5.328605401467676 5.597978895818921
2512 -6.985911591073332 7.86103311477206 2.3554155835375643
1456 -7.238024840833658 -13.02421248826025 6.30220927077185
3548 -7.0834187838593765 2.6191899775236855 -24.59111241315433
2975 -2.3368002874726876 12.970161447758937 -0.7188429430787691
218 1.3422327942604093 -0.1502583540869319 -0.9352664542300156
2653 -4.677875245970346 14.710087828896016 11.978160311068052
524 4.779553569500816 -1.3142218340300946 1.4846518377878624
1042 -6.4543306833273055 -10.361023821318572 -7.615224562088269
1757 2.8096598303064297 21.8073810855252 5.528953264732122
1736 4.337466524986389 -4.804299594292973 12.192923411529126
3253 -5.876987489955494 7.729936896411472 4.122316073712681
2516 0.8637203809560159 4.733147740025707 -12.663435131303947
1957 0.8711069611917472 -21.61579779038445 -3.374717846077405
137 1.3197139405756078 -3.6027963560946232 14.36474905733836
103 0.45955206900075535 0.6930527694313019 5.47464906174818
1915 5.476287309147736 14.340181993719293 14.462685325500138
139 1.770455147086458 -10.87022154267571 1.875173146934577
3047 -11.115819999756829 -28.52714401037451 23.91602380443029
1539 11.799315388023786 2.6582174935285643 -5.455946788721271
4169 -12.707024509377845 -8.168619564773817 4.291608070598246
3312 -17.487934126955075 -17.950721798613866 -18.679658740717194
309 -1.2646418218538318 -3.3662877915252083 -3.0159847734522476
3329 -6.033075322600055 -4.654225476330203 -7.700847125134409
935 0.06596630417671696 -18.611192684677352 -20.062851666108564
2078 -28.530677138498948 14.868639082034326 0.4169798139809337
1393 3.351846127421834 -9.27786890814453 -8.780618306644847
926 24.505469099009176 -5.895980387768757 12.148979803179298
1550 -6.817041097208031 -19.185258504739082 4.139223975494468
2573 4.268984701489646 -0.211500931963104 7.682773700964155
2578 -5.757876659043078 -20.0871004801586 6.525744277815863
176 -6.573549992303309 -4.71192137732939 6.031014352070232
3731 22.551579775676306 -25.94229402044138 -8.230147857660562
1733 -10.160160392087514 12.761305391087255 -11.41638743720673
3567 12.67578829596137 5.572067639841763 11.137122128120748
3203 13.54100433599165 -8.648754776764042 4.597547709582507
2327 -2.177691641993312 19.13524050224284 8.161238226375229
3416 21.43496758768622 -11.412211117855458 10.615185735620711
3998 -17.04716099566065 -11.762712971466309 0.6044468884257286
1811 17.59537516345594 -13.39459648058863 9.269488320581802
1980 10.469050575177278 -3.1984973826587133 -11.37948717357909
3153 -14.26534085868698 6.048857413951844 6.862908930666714
2609 12.325014644984352 -4.689896159527922 20.457956607762338
3297 -12.74320777361201 5.514894285162684 -5.479101096761514
1449 11.043721658224277 -4.314472665691825 -8.003491365439002
696 6.14713905580687 7.720344513292221 -10.318749690891552
2789 10.182893989254048 -8.769489713623607 -10.250832471820267
760 -3.5103199009426125 7.846556903861297 -6.290545308442428
2493 4.9793938329788 6.769407978111889 14.148923967564713
636 2.7581129933468453 -6.6514554121391285 -0.8791585081006767
360 -5.419294710836946 7.70762205955397 -3.8916533181756248
3712 -2.180467749674198 -5.154866567529848 -17.646476996891817
3690 -0.34102664486776185 -9.27146756406035 -33.192255506388975
2400 -4.753560616307638 11.24324741337793 -2.0083357250778686
3152 -8.895227125551894 15.204381362619511 1.556142054627444
3722 18.32385803203456 -2.1921566643560757 1.040357663892482
3701 8.405648653900613 -5.305375098476203 -13.25379928133287
263 2.5860227212866866 3.864758238265999 -6.5860212350134315
605 -5.103386353241723 2.919153033100218 3.051172991577399
3225 19.553688045597447 -14.739893066818105 -17.406663546380017
1590 -17.67256816387798 -14.696208421507098 23.752070917576912
4065 1.8016579084103892 26.5232576193724 6.225269457097135
1608 10.02689403577471 4.353955069956965 -8.47245764140714
1446 2.38959297312096 11.85963040976118 -2.4726854277506978
3496 -7.342031182397155 18.846320043967594 -2.5549769278846917
210 7.4265019710324935 -6.697084278659776 0.9566021744781985
946 -5.608806706587155 -17.425896897903353 -6.22709850793829
2671 -6.617215532243808 1.8158847343889575 -10.744069053599814
1841 14.591869077816355 7.5475897298973305 -9.186793510258648
1563 -22.190440768541535 -8.263889192850332 -4.745166744651651
2940 22.799193750976617 -12.47998900437222 -14.739227842426537
1090 -5.415465224814323 -0.3786596982060825 -19.79654546729398
1292 9.312212987377839 -5.598042405546514 10.4868252423569
4083 2.765986044034267 17.885645864869087 8.667413780380128
3670 4.847069047121151 1.5207358272391431 36.99705533924563
839 -1.016163791529896 3.6822054118556657 10.183950024345517
937 -29.216327891587408 -6.449306796009631 -12.94882821264947
1585 11.787753630170537 -4.744633184374418 -0.8366203066220719
866 -23.774447243458777 6.5726152757042176 7.255739466676773
2514 -10.756315147228074 11.343608192052947 20.90168122378262
3840 10.466187015970249 3.622035052987223 2.4725122619702526
1188 -11.688255197772772 1.3641000587871897 -14.257972458496674
2064 3.3961046339000256 1.3590462454387537 9.20873536338292
3924 -11.053352354149487 -3.9391035676293327 24.217548382338823
2379 2.2265923144118354 0.08233536909540033 10.19209653256838
2719 -3.311308438579483 -2.5444104435656043 -12.800296635569005
3499 8.062093311116806 -14.37283986415831 -6.830819108145025
2174 5.038079096110261 5.222953111930665 -9.409271545773883
988 -5.075439123838008 -8.773954539378497 -18.943271486521677
3623 -3.660190483099662 8.142441636443063 15.039517023388807
3598 -5.382581282657352 6.502130710885845 -19.347690014080015
898 6.468065764153804 -15.367185513371751 6.295855455854701
4205 1.3704896966925233 6.882377919355446 -6.534087879663544
3654 22.09267516679783 4.751367375453246 3.070409558768485
2464 16.770103035467145 -7.357332264736853 6.008356020380249
3637 14.955178319932903 -3.5275652347877204 -1.9375897506802717
3584 9.593117257084044 5.892432237078737 20.103824865847866
1337 -9.617229437386095 -24.781820377475015 -10.80934763198901
3950 3.4915297526992624 -2.421731991238132 13.005270590629076
1828 -0.6641664861227583 1.5093256746775712 -6.227832088454822
579 -3.7711141204361986 4.190460176333176 -2.5668247709694096
3893 -11.171528268098461 4.553715630636602 4.386866475915714
2833 -3.442094412463863 -3.8033599019815836 -0.2984450911316199
2525 2.9491083077181734 4.749445111941194 16.919189728422374
2758 -3.8309221988405033 4.329090877471312 -7.735178642790441
932 18.381546175511037 -29.67012414764912 -4.608407013000049
1801 6.861844864011141 1.3699387357175767 26.632352742326542
2443 -0.33744452203093234 -5.810689031949107 -6.804380668057757
3970 12.696764986742167 12.989263641070567 17.810553228899913
3390 0.16626902470106944 -8.817317349959303 -28.164363641277237
1796 6.773154546372255 26.898675095693022 -2.2555031454996204
2680 8.20239711446325 3.4628890938336423 -25.92107958533386
4320 13.803938928699187 8.412255813962407 21.07523358491022
4196 -33.65668383771918 -5.153517620184174 21.0995004515926
2640 12.070489798187017 2.4581709896674755 -5.562870596927509
1455 13.83325488421254 -5.649928775935794 -4.79282200915777
282 0.23030100309932613 6.098711662594892 -9.192615466222424
2876 -21.89734179367361 6.219254737251431 11.082357820608431
1877 7.994850692453164 19.115689910629925 3.45595747557128
1613 3.7391622313414077 25.793572876290327 -11.470746198611034
963 15.967870182684717 2.174138709760398 9.508456863135285
3697 5.6887177178307535 -6.5692806878090035 7.64362377818438
2983 8.731222007539314 -6.382889051114687 -6.9370117266627975
746 -11.209948839490256 -8.083953112491562 -1.3898217966472206
420 2.5967377751332226 -11.880809120905319 3.5785635219530145
2507 -20.54521828841544 -1.2776013273389246 -9.28952477778249
1280 6.21731736042374 19.678642290519818 3.499649833114902
1890 10.864858445869787 11.954911989418214 -7.619681295960126
1382 17.266279226385603 -3.1716254830769572 -8.21219363926151
4287 -19.057908165785395 -6.44662002374642 8.34497937272691
2802 10.562335696664771 11.607339810044282 -0.6988645170469393
3663 -1.8951444918194251 -15.746218672456736 5.494674205513708
159 2.1823826452258723 -10.76493238044529 -12.279791922326117
2823 -6.7392159382434 -3.898121286643004 -4.364213049633954
2487 3.439437678396873 0.6559436071336413 11.024713432396796
705 8.221754436939678 -0.5804664445271028 -1.5490879225914453
2321 16.879275803703347 19.649124411019944 -5.133967116271186
492 1.4214429555451427 12.008647325567075 -2.8819017255776767
1069 -0.7335162997497022 -14.885416917649618 -12.239245856442853
4247 -7.327753680163216 6.619397559695068 -4.022831300312146
521 -6.021570497752749 2.426110670845295 7.538035860646595
3748 -7.334014640444484 1.3281127719845403 8.770549400958316
2518 6.611219084304207 14.037670590947483 -10.765107687821418
3553 2.508642866469753 10.434543808105634 -15.518164362124105
3085 -8.97184242969368 -11.69593074034421 0.10254816689200837
665 -2.2773550270747074 -10.081855261511954 -3.7331475177463047
3230 -1.936285857525056 -19.743514476417527 7.964637338820184
1264 -8.945486916783391 6.071207832687874 12.461986221107441
2372 3.38205959349505 1.4725926509572163 -17.6163454490889
2308 -2.955755593975408 -12.054660162278642 11.500508894420264
2211 7.2666144943330195 -7.877490500348493 1.7050761161073142
1606 -23.328041062037038 -6.196639622651338 10.756765919127332
2156 -7.001387306476654 -5.032952435018968 -14.81216019543452
2343 7.114589416266794 8.463180076444932 14.508402755846086
4268 -8.504921603844256 -34.911565576900244 10.774753227972191
1976 25.822536158024377 -8.62736248104614 -20.430168000457897
1569 -13.819945177656683 16.585939905294595 -7.469907323880363
1860 20.794986641756253 2.929333636833352 16.808103873129042
812 1.8634527918939285 7.534774392668556 2.7764608529660912
2677 -25.63537559056272 4.97184433861693 11.37164740111868
500 -3.754785291689262 -3.74648672355928 2.100224621654804
688 -5.247537740517697 -3.9458551497756855 -0.8506861419254347
3724 5.328325706889306 11.472925372944143 14.339969006496176
725 -8.161448397253505 2.6409842471363465 -11.615105253403605
71 -3.843997437779063 -10.457548332357616 2.0505127500384037
471 10.673541776927959 2.8399794578347315 5.0508972364639035
2642 16.566264563760356 5.113548775002634 9.506461566390536
970 -15.820836635092746 -21.740403464712937 21.6412810271743
4198 -5.363263037952606 -3.2703692983433394 26.957605831749298
1114 3.8485209389152826 5.578833166289957 -17.26226561615281
4081 -1.2319401321252288 8.040331702928716 23.03808914985009
4203 -4.192154936832754 -9.952128816832499 16.624229454541933
2296 -2.4359845594837397 25.952851950994237 11.143327514622761
2060 12.965127276011719 8.449885434104432 -3.4406324269538096
1496 3.6218739803532523 11.234430231097004 -18.73015148552912
953 9.222891202278934 -1.4488927739150061 -0.9092143095893007
345 5.437327258873099 -6.433855838991576 -4.305002325362346
2405 1.4863531324168242 9.30066650961978 13.525549864663253
3016 5.496866663377715 -4.580669415334629 4.468853906038574
3557 -2.4603892257744207 -12.118630736480819 18.989479913125432
3258 -16.54780179850935 9.78570470807724 18.512601924417964
3491 6.104537518434778 6.576937740408349 15.514086073473202
4234 6.894734805370723 9.49239583016562 5.479046715987908
4318 7.444965178716626 3.1888438595427586 -13.770053132651503
1783 -11.947851173371445 -0.8723480812371867 15.070400115064936
2056 -22.515174574138502 11.70434519703915 10.011572335823553
2939 21.66703672165083 -11.149469687644014 -6.39993758711777
3399 -9.92745225379469 -2.3707724809079673 8.765324233469558
3198 -10.45052987831731 -10.66710039688556 11.906179406154683
452 -0.16535383362817377 7.844213869688173 -7.221123623363617
819 1.6445856130713805 4.676314702903219 0.7003095662255181
1170 1.8315194478581283 2.8386891951841977 9.236391104318871
2679 -9.3638495754445 8.089162684497643 -5.957256723140035
2342 22.920714233431916 -22.620329855300984 -9.406085086963575
2855 -3.656071326503537 -1.0407030872876384 -4.855923305972399
259 1.188837188243396 -4.810541807843932 -6.087653959236555
2804 -32.40809423633835 19.266250610317847 7.8963210234364745
1420 -0.12285901548054681 -9.836363336999655 -23.681441309150436
911 8.905062217586169 0.3847771216870923 4.29385805444372
3974 18.486516929873265 -16.061804777776253 2.108580244157416
2424 -4.101787278559773 0.746056109071783 -10.338823931510456
2159 -21.67556267292987 -3.6406738584826783 23.36172761821111
2155 0.26382365058134577 -4.456336784818984 -30.49457261800822
2891 19.34043872460447 4.231307785478874 -4.7406543392804235
632 -9.55670934702138 3.6217195306590866 2.087107005533477
980 -6.702167399048044 10.029106479227423 2.6077869261048616
4123 7.588236438948992 2.080199117711735 9.743498273088882
76 -6.3148448509476 3.9204776501546528 6.221692995034192
1169 -2.03731794571021 9.263546013097887 2.731790897090317
831 -3.843895137819501 -7.809023215041472 5.717116244187726
577 4.770613199515262 5.347729042935489 1.6667915606603516
3575 43.5238321428187 -4.339114667137174 -2.1688420305847487
3775 2.3561202616373995 -7.79184057725111 -1.0339215391922256
531 2.2773521387494213 0.7870390441014095 11.860616499849487
3869 13.950631838446911 18.05626232136487 -8.999696950414503
4027 5.243839096929276 13.436150146951286 -13.997975142560534
3819 1.0684883329141333 16.98253536682498 -33.77430045551967
3551 1.6057200385886563 -30.48678188304302 -3.3303460985422326
4248 -6.0303640162974625 2.5926785388225944 -0.7162159660924211
252 -0.25808794730979184 7.511408649546305 6.461857700859565
2924 8.097653400565493 11.253005469383806 -11.39989698377944
2416 -12.956178400235622 8.695157388768312 2.5906922377051917
3174 -5.036333440628301 2.841667789844107 -7.086707816511773
4214 -18.80843387822098 -3.657874481814806 -5.734031452835391
3902 0.049581406990898795 -26.698767205395633 0.5399415290143817
3703 5.700668725391898 -17.153118481103807 11.536443120109574
3104 2.5952797226569104 22.364607967028487 -2.5630191132349296
3219 3.442455405527138 -4.7992576074256705 4.369261856946839
2403 -1.936681705761823 -6.1042505745003535 6.722312739450802
3467 -10.177086593068159 2.175212176049676 -5.216274975504563
4237 -4.637010105191651 -15.524470592946603 2.7302435851237234
2795 -23.03621219087766 -1.8727620673072507 -3.0280034767002464
1871 -0.4868273026458919 -5.628534800438864 -1.547771991861764
2484 22.67425990750828 -0.4670126634053685 3.0483787754673712
2923 23.55905386723569 -25.915431921517843 8.21819146427657
4194 -0.09759775584361317 6.055764555089601 2.4428392891400987
2638 9.57622957043773 0.203169047313111 -0.7315310331050137
3625 -7.41131061717126 5.3263606065136875 31.87497579072285
3971 -0.4248768326086649 3.5187388527203813 -1.030578194857889
3419 -27.953934900889262 -3.896681615758947 -8.100028573933523
1483 19.17350433062964 7.628168474060329 5.609975907189823
518 -0.8702395742450105 -0.020836722892813662 1.2594286714258451
1562 -6.4835562983103445 -9.65714167524181 15.96394079669201
4171 -3.2551905865777457 26.832143964438927 5.427657612130006
3385 0.35099146984183205 -1.6717483578881178 24.751979941256547
3090 12.898052960145835 -7.311933669006758 -2.356211956009338
1805 -14.013830339008495 0.9123178386937193 -5.852850631068877
4041 3.381425047777705 7.992303336978595 -14.223790014797421
3849 -5.0798663453536355 1.6089629430025896 -5.6616354421402555
1818 9.425916941352197 22.64078153650386 -4.965485702971498
138 -4.2708709501822355 1.1447769725184238 8.701287053756552
721 -0.23504559172356937 8.79901613562929 6.465442925009149
3672 9.370171589968887 -7.201460936044567 -5.465158932593327
464 2.182843026830387 1.706035686502624 4.049658234181873
2018 1.4732096263024392 8.079238331672583 9.849706737615666
2831 3.71720523173398 8.30079741973143 4.961321730068109
2942 -11.324382074982859 22.784506691781814 -6.798507946580822
2919 -6.462871556420279 16.755508212243562 -13.78913100478619
3430 9.712998482622229 11.801779088896367 -10.025504430281263
2301 -11.55709409957569 14.515611802271835 6.036647916705204
740 -1.7078021997845292 -0.6046728335606313 6.5752941150955
515 -1.1161672011938508 0.592525993154125 -2.509268787122484
2860 1.8309848530862645 9.22822542926523 10.58235639849377
1486 -24.44232225399157 19.124142299695514 9.206549749266742
952 -9.864774359282121 16.654659935694113 -27.682227719592483
3023 17.04405929178774 14.827145734987496 -12.17805309350399
3908 2.978244005690894 3.4040182587838292 -2.0979307060442594
364 3.3564429762044448 2.536499807580609 -0.7458896069335493
3455 -3.0607005728185435 -13.04494530281116 11.274148680790983
1242 19.1568524483691 -30.75949729018835 13.209225852846352
1060 -7.649371353463735 -2.9501656125697187 8.60306851593376
678 11.710481836787014 4.948522225840479 1.6524554239053624
2175 -9.583306876213316 -1.3701614290138795 16.156633553202404
1832 1.4836159577237826 -8.253952520437915 6.542069893969221
1110 -12.926560738175608 -4.9377526994840775 0.5878402518728054
466 -10.436373826996983 2.64069444001972 3.814793122409425
85 -5.15216880013005 2.7663841091585217 1.988577605319182
3921 13.903295874603014 -10.295198602393905 15.296708413717575
4164 12.31065878191081 2.6930058680989513 -4.321373424677217
1579 7.608882167854039 0.27581594761576905 -5.6694894052849465
835 -1.0125915518078674 1.033919294286474 -8.314827830926564
4098 -0.20504267133595913 10.26319845984694 -5.553603907984169
2553 -6.3867665201755495 -28.637738515008493 -9.966544161594674
4135 5.218568558341151 0.7506831505403547 -4.438213499064005
787 0.23863123624919783 -0.8832139071362569 3.475806262874268
3522 8.658612117046706 14.409154319088133 3.7152006089336984
668 0.9496023188490016 3.6226302951889675 -1.750331303202301
800 -5.170816599485907 9.589120805254952 -6.5960824115186005
814 1.1574131361998188 4.9969588515617085 5.4078269940386114
558 -0.6909817421274072 4.501164025893173 3.24195497186572
3817 -6.92565050874599 -9.673787890587493 11.444994403773116
1321 -14.786084645414324 -2.963823100841726 19.207581324922494
3327 -32.50870141183141 -2.6447178894778776 3.1734103727395238
3193 1.4739992694438548 2.7110107266547963 -7.558214577215378
1800 -18.043692405821755 2.004427492741427 -5.178963409438125
3735 4.1951976519420455 -6.471085301377392 -4.430140019667785
904 -1.0632273245876298 19.846831832883478 4.209894480411422
1534 -3.651145500280767 -9.753815714585903 -2.147416774624857
858 1.746666924398384 -4.434961161407133 6.083226720773407
3316 16.254048917676382 7.913575223922367 18.568942618539836
1701 17.789573753074265 9.35485271894734 17.43062409167611
1140 -15.784962588494801 12.12773660108901 2.5493150573834247
3217 -20.960961213151904 -1.3330735745477458 -21.181620737653905
4078 18.73175728996014 -11.392259819475424 -20.692436519958797
4197 -1.0466230189678556 19.083850557926837 -20.458450566019888
2615 1.299344359588626 10.377097230568046 9.53744307591761
1092 -2.9833312895092075 -32.05936773769567 24.968234072795035
1749 12.029746009665132 -5.949527172362969 -11.861098777066443
98 10.291398495458504 -3.5111626387101955 -1.297267626694465
1021 1.1117836319554975 7.9397917206835755 -1.0993419554624204
1033 4.0844701556277485 10.112868727519107 13.905911933694457
