"B8 Cr12"
1.0
       12.4530687332         0.0000000000         0.0000000000
        0.0000000000        20.9637641907         0.0000000000
        0.0000000000         0.0000000000        12.4511890411
    B   Cr
  144  216
Direct
     0.062086853         0.444988530         0.200763851
     0.062086853         0.444988530         0.534097184
     0.062086853         0.444988530         0.867430517
     0.062086853         0.944988530         0.200763851
     0.062086853         0.944988530         0.534097184
     0.062086853         0.944988530         0.867430517
     0.395420187         0.444988530         0.200763851
     0.395420187         0.444988530         0.534097184
     0.395420187         0.444988530         0.867430517
     0.395420187         0.944988530         0.200763851
     0.395420187         0.944988530         0.534097184
     0.395420187         0.944988530         0.867430517
     0.728753520         0.444988530         0.200763851
     0.728753520         0.444988530         0.534097184
     0.728753520         0.444988530         0.867430517
     0.728753520         0.944988530         0.200763851
     0.728753520         0.944988530         0.534097184
     0.728753520         0.944988530         0.867430517
     0.228850037         0.274294133         0.262797519
     0.228850037         0.274294133         0.596130852
     0.228850037         0.274294133         0.929464186
     0.228850037         0.774294133         0.262797519
     0.228850037         0.774294133         0.596130852
     0.228850037         0.774294133         0.929464186
     0.562183370         0.274294133         0.262797519
     0.562183370         0.274294133         0.596130852
     0.562183370         0.274294133         0.929464186
     0.562183370         0.774294133         0.262797519
     0.562183370         0.774294133         0.596130852
     0.562183370         0.774294133         0.929464186
     0.895516703         0.274294133         0.262797519
     0.895516703         0.274294133         0.596130852
     0.895516703         0.274294133         0.929464186
     0.895516703         0.774294133         0.262797519
     0.895516703         0.774294133         0.596130852
     0.895516703         0.774294133         0.929464186
     0.250407342         0.070152236         0.285188114
     0.250407342         0.070152236         0.618521447
     0.250407342         0.070152236         0.951854781
     0.250407342         0.570152236         0.285188114
     0.250407342         0.570152236         0.618521447
     0.250407342         0.570152236         0.951854781
     0.583740675         0.070152236         0.285188114
     0.583740675         0.070152236         0.618521447
     0.583740675         0.070152236         0.951854781
     0.583740675         0.570152236         0.285188114
     0.583740675         0.570152236         0.618521447
     0.583740675         0.570152236         0.951854781
     0.917074009         0.070152236         0.285188114
     0.917074009         0.070152236         0.618521447
     0.917074009         0.070152236         0.951854781
     0.917074009         0.570152236         0.285188114
     0.917074009         0.570152236         0.618521447
     0.917074009         0.570152236         0.951854781
     0.311545064         0.399323695         0.117773957
     0.311545064         0.399323695         0.451107290
     0.311545064         0.399323695         0.784440624
     0.311545064         0.899323695         0.117773957
     0.311545064         0.899323695         0.451107290
     0.311545064         0.899323695         0.784440624
     0.644878398         0.399323695         0.117773957
     0.644878398         0.399323695         0.451107290
     0.644878398         0.399323695         0.784440624
     0.644878398         0.899323695         0.117773957
     0.644878398         0.899323695         0.451107290
     0.644878398         0.899323695         0.784440624
     0.978211731         0.399323695         0.117773957
     0.978211731         0.399323695         0.451107290
     0.978211731         0.399323695         0.784440624
     0.978211731         0.899323695         0.117773957
     0.978211731         0.899323695         0.451107290
     0.978211731         0.899323695         0.784440624
     0.145303963         0.320027744         0.012754445
     0.145303963         0.320027744         0.346087779
     0.145303963         0.320027744         0.679421112
     0.145303963         0.820027744         0.012754445
     0.145303963         0.820027744         0.346087779
     0.145303963         0.820027744         0.679421112
     0.478637296         0.320027744         0.012754445
     0.478637296         0.320027744         0.346087779
     0.478637296         0.320027744         0.679421112
     0.478637296         0.820027744         0.012754445
     0.478637296         0.820027744         0.346087779
     0.478637296         0.820027744         0.679421112
     0.811970629         0.320027744         0.012754445
     0.811970629         0.320027744         0.346087779
     0.811970629         0.320027744         0.679421112
     0.811970629         0.820027744         0.012754445
     0.811970629         0.820027744         0.346087779
     0.811970629         0.820027744         0.679421112
     0.000668497         0.195059537         0.096486760
     0.000668497         0.195059537         0.429820093
     0.000668497         0.195059537         0.763153426
     0.000668497         0.695059537         0.096486760
     0.000668497         0.695059537         0.429820093
     0.000668497         0.695059537         0.763153426
     0.334001830         0.195059537         0.096486760
     0.334001830         0.195059537         0.429820093
     0.334001830         0.195059537         0.763153426
     0.334001830         0.695059537         0.096486760
     0.334001830         0.695059537         0.429820093
     0.334001830         0.695059537         0.763153426
     0.667335163         0.195059537         0.096486760
     0.667335163         0.195059537         0.429820093
     0.667335163         0.195059537         0.763153426
     0.667335163         0.695059537         0.096486760
     0.667335163         0.695059537         0.429820093
     0.667335163         0.695059537         0.763153426
     0.166981732         0.024457534         0.035364883
     0.166981732         0.024457534         0.368698216
     0.166981732         0.024457534         0.702031550
     0.166981732         0.524457534         0.035364883
     0.166981732         0.524457534         0.368698216
     0.166981732         0.524457534         0.702031550
     0.500315065         0.024457534         0.035364883
     0.500315065         0.024457534         0.368698216
     0.500315065         0.024457534         0.702031550
     0.500315065         0.524457534         0.035364883
     0.500315065         0.524457534         0.368698216
     0.500315065         0.524457534         0.702031550
     0.833648398         0.024457534         0.035364883
     0.833648398         0.024457534         0.368698216
     0.833648398         0.024457534         0.702031550
     0.833648398         0.524457534         0.035364883
     0.833648398         0.524457534         0.368698216
     0.833648398         0.524457534         0.702031550
     0.084118241         0.149268879         0.180033807
     0.084118241         0.149268879         0.513367140
     0.084118241         0.149268879         0.846700473
     0.084118241         0.649268879         0.180033807
     0.084118241         0.649268879         0.513367140
     0.084118241         0.649268879         0.846700473
     0.417451574         0.149268879         0.180033807
     0.417451574         0.149268879         0.513367140
     0.417451574         0.149268879         0.846700473
     0.417451574         0.649268879         0.180033807
     0.417451574         0.649268879         0.513367140
     0.417451574         0.649268879         0.846700473
     0.750784908         0.149268879         0.180033807
     0.750784908         0.149268879         0.513367140
     0.750784908         0.149268879         0.846700473
     0.750784908         0.649268879         0.180033807
     0.750784908         0.649268879         0.513367140
     0.750784908         0.649268879         0.846700473
     0.078520551         0.047112909         0.196501003
     0.078520551         0.047112909         0.529834336
     0.078520551         0.047112909         0.863167669
     0.078520551         0.547112909         0.196501003
     0.078520551         0.547112909         0.529834336
     0.078520551         0.547112909         0.863167669
     0.411853884         0.047112909         0.196501003
     0.411853884         0.047112909         0.529834336
     0.411853884         0.047112909         0.863167669
     0.411853884         0.547112909         0.196501003
     0.411853884         0.547112909         0.529834336
     0.411853884         0.547112909         0.863167669
     0.745187217         0.047112909         0.196501003
     0.745187217         0.047112909         0.529834336
     0.745187217         0.047112909         0.863167669
     0.745187217         0.547112909         0.196501003
     0.745187217         0.547112909         0.529834336
     0.745187217         0.547112909         0.863167669
     0.150777107         0.422235781         0.028773147
     0.150777107         0.422235781         0.362106480
     0.150777107         0.422235781         0.695439813
     0.150777107         0.922235781         0.028773147
     0.150777107         0.922235781         0.362106480
     0.150777107         0.922235781         0.695439813
     0.484110440         0.422235781         0.028773147
     0.484110440         0.422235781         0.362106480
     0.484110440         0.422235781         0.695439813
     0.484110440         0.922235781         0.028773147
     0.484110440         0.922235781         0.362106480
     0.484110440         0.922235781         0.695439813
     0.817443773         0.422235781         0.028773147
     0.817443773         0.422235781         0.362106480
     0.817443773         0.422235781         0.695439813
     0.817443773         0.922235781         0.028773147
     0.817443773         0.922235781         0.362106480
     0.817443773         0.922235781         0.695439813
     0.245355845         0.172200399         0.268746065
     0.245355845         0.172200399         0.602079398
     0.245355845         0.172200399         0.935412732
     0.245355845         0.672200399         0.268746065
     0.245355845         0.672200399         0.602079398
     0.245355845         0.672200399         0.935412732
     0.578689178         0.172200399         0.268746065
     0.578689178         0.172200399         0.602079398
     0.578689178         0.172200399         0.935412732
     0.578689178         0.672200399         0.268746065
     0.578689178         0.672200399         0.602079398
     0.578689178         0.672200399         0.935412732
     0.912022511         0.172200399         0.268746065
     0.912022511         0.172200399         0.602079398
     0.912022511         0.172200399         0.935412732
     0.912022511         0.672200399         0.268746065
     0.912022511         0.672200399         0.602079398
     0.912022511         0.672200399         0.935412732
     0.079304241         0.115137977         0.013918202
     0.079304241         0.115137977         0.347251535
     0.079304241         0.115137977         0.680584869
     0.079304241         0.615137977         0.013918202
     0.079304241         0.615137977         0.347251535
     0.079304241         0.615137977         0.680584869
     0.412637574         0.115137977         0.013918202
     0.412637574         0.115137977         0.347251535
     0.412637574         0.115137977         0.680584869
     0.412637574         0.615137977         0.013918202
     0.412637574         0.615137977         0.347251535
     0.412637574         0.615137977         0.680584869
     0.745970908         0.115137977         0.013918202
     0.745970908         0.115137977         0.347251535
     0.745970908         0.115137977         0.680584869
     0.745970908         0.615137977         0.013918202
     0.745970908         0.615137977         0.347251535
     0.745970908         0.615137977         0.680584869
     0.229123971         0.479322863         0.196956250
     0.229123971         0.479322863         0.530289583
     0.229123971         0.479322863         0.863622916
     0.229123971         0.979322863         0.196956250
     0.229123971         0.979322863         0.530289583
     0.229123971         0.979322863         0.863622916
     0.562457304         0.479322863         0.196956250
     0.562457304         0.479322863         0.530289583
     0.562457304         0.479322863         0.863622916
     0.562457304         0.979322863         0.196956250
     0.562457304         0.979322863         0.530289583
     0.562457304         0.979322863         0.863622916
     0.895790637         0.479322863         0.196956250
     0.895790637         0.479322863         0.530289583
     0.895790637         0.479322863         0.863622916
     0.895790637         0.979322863         0.196956250
     0.895790637         0.979322863         0.530289583
     0.895790637         0.979322863         0.863622916
     0.246291611         0.104272022         0.118034738
     0.246291611         0.104272022         0.451368071
     0.246291611         0.104272022         0.784701404
     0.246291611         0.604272022         0.118034738
     0.246291611         0.604272022         0.451368071
     0.246291611         0.604272022         0.784701404
     0.579624945         0.104272022         0.118034738
     0.579624945         0.104272022         0.451368071
     0.579624945         0.104272022         0.784701404
     0.579624945         0.604272022         0.118034738
     0.579624945         0.604272022         0.451368071
     0.579624945         0.604272022         0.784701404
     0.912958278         0.104272022         0.118034738
     0.912958278         0.104272022         0.451368071
     0.912958278         0.104272022         0.784701404
     0.912958278         0.604272022         0.118034738
     0.912958278         0.604272022         0.451368071
     0.912958278         0.604272022         0.784701404
     0.316703010         0.365157689         0.283988784
     0.316703010         0.365157689         0.617322117
     0.316703010         0.365157689         0.950655450
     0.316703010         0.865157689         0.283988784
     0.316703010         0.865157689         0.617322117
     0.316703010         0.865157689         0.950655450
     0.650036343         0.365157689         0.283988784
     0.650036343         0.365157689         0.617322117
     0.650036343         0.365157689         0.950655450
     0.650036343         0.865157689         0.283988784
     0.650036343         0.865157689         0.617322117
     0.650036343         0.865157689         0.950655450
     0.983369677         0.365157689         0.283988784
     0.983369677         0.365157689         0.617322117
     0.983369677         0.365157689         0.950655450
     0.983369677         0.865157689         0.283988784
     0.983369677         0.865157689         0.617322117
     0.983369677         0.865157689         0.950655450
     0.149936841         0.354220535         0.179735312
     0.149936841         0.354220535         0.513068645
     0.149936841         0.354220535         0.846401979
     0.149936841         0.854220535         0.179735312
     0.149936841         0.854220535         0.513068645
     0.149936841         0.854220535         0.846401979
     0.483270175         0.354220535         0.179735312
     0.483270175         0.354220535         0.513068645
     0.483270175         0.354220535         0.846401979
     0.483270175         0.854220535         0.179735312
     0.483270175         0.854220535         0.513068645
     0.483270175         0.854220535         0.846401979
     0.816603508         0.354220535         0.179735312
     0.816603508         0.354220535         0.513068645
     0.816603508         0.354220535         0.846401979
     0.816603508         0.854220535         0.179735312
     0.816603508         0.854220535         0.513068645
     0.816603508         0.854220535         0.846401979
     0.333291610         0.490126157         0.030311440
     0.333291610         0.490126157         0.363644773
     0.333291610         0.490126157         0.696978106
     0.333291610         0.990126157         0.030311440
     0.333291610         0.990126157         0.363644773
     0.333291610         0.990126157         0.696978106
     0.666624943         0.490126157         0.030311440
     0.666624943         0.490126157         0.363644773
     0.666624943         0.490126157         0.696978106
     0.666624943         0.990126157         0.030311440
     0.666624943         0.990126157         0.363644773
     0.666624943         0.990126157         0.696978106
     0.999958276         0.490126157         0.030311440
     0.999958276         0.490126157         0.363644773
     0.999958276         0.490126157         0.696978106
     0.999958276         0.990126157         0.030311440
     0.999958276         0.990126157         0.363644773
     0.999958276         0.990126157         0.696978106
     0.317712196         0.297154863         0.101528429
     0.317712196         0.297154863         0.434861763
     0.317712196         0.297154863         0.768195096
     0.317712196         0.797154863         0.101528429
     0.317712196         0.797154863         0.434861763
     0.317712196         0.797154863         0.768195096
     0.651045530         0.297154863         0.101528429
     0.651045530         0.297154863         0.434861763
     0.651045530         0.297154863         0.768195096
     0.651045530         0.797154863         0.101528429
     0.651045530         0.797154863         0.434861763
     0.651045530         0.797154863         0.768195096
     0.984378863         0.297154863         0.101528429
     0.984378863         0.297154863         0.434861763
     0.984378863         0.297154863         0.768195096
     0.984378863         0.797154863         0.101528429
     0.984378863         0.797154863         0.434861763
     0.984378863         0.797154863         0.768195096
     0.166996383         0.229234292         0.101085355
     0.166996383         0.229234292         0.434418689
     0.166996383         0.229234292         0.767752022
     0.166996383         0.729234292         0.101085355
     0.166996383         0.729234292         0.434418689
     0.166996383         0.729234292         0.767752022
     0.500329716         0.229234292         0.101085355
     0.500329716         0.229234292         0.434418689
     0.500329716         0.229234292         0.767752022
     0.500329716         0.729234292         0.101085355
     0.500329716         0.729234292         0.434418689
     0.500329716         0.729234292         0.767752022
     0.833663049         0.229234292         0.101085355
     0.833663049         0.229234292         0.434418689
     0.833663049         0.229234292         0.767752022
     0.833663049         0.729234292         0.101085355
     0.833663049         0.729234292         0.434418689
     0.833663049         0.729234292         0.767752022
     0.062521574         0.240122225         0.267417941
     0.062521574         0.240122225         0.600751274
     0.062521574         0.240122225         0.934084608
     0.062521574         0.740122225         0.267417941
     0.062521574         0.740122225         0.600751274
     0.062521574         0.740122225         0.934084608
     0.395854907         0.240122225         0.267417941
     0.395854907         0.240122225         0.600751274
     0.395854907         0.240122225         0.934084608
     0.395854907         0.740122225         0.267417941
     0.395854907         0.740122225         0.600751274
     0.395854907         0.740122225         0.934084608
     0.729188240         0.240122225         0.267417941
     0.729188240         0.240122225         0.600751274
     0.729188240         0.240122225         0.934084608
     0.729188240         0.740122225         0.267417941
     0.729188240         0.740122225         0.600751274
     0.729188240         0.740122225         0.934084608
