POSCAR file written by OVITO Basic 3.10.6
1
16.1848280445 0.0 0.0
0.0 18.8248707897 0.0
0.0 0.0 14.8114644828
Fe B C N
81 355 104 0
Cartesian
4.4122872163 5.8887283847 4.3143425959
7.9964870838 4.4934749092 4.0061469352
2.2166058207 7.3946974966 4.5535843455
5.5638036506 1.9370461835 0.3933230907
7.9254169038 7.1588866535 1.6828434922
2.9720770974 4.7855564621 6.2328100172
3.8087135908 0.1519764747 0.2823840932
7.972706917 0.2167001748 4.288212138
0.7048425755 0.151936615 2.9107456384
2.5966532874 0.1435364468 5.9700059639
2.9251445464 8.3466544113 0.7684437555
6.2408961449 1.2064159755 7.2761759925
6.5955894907 7.914746559 7.2294015963
15.0753780533 4.3538705605 4.5425997133
8.8710450731 4.256774626 6.4380926403
11.6184420274 1.3628024014 6.5420953084
15.882053487 2.8905398775 6.2170799464
9.7502947381 1.9232961986 4.4938631381
13.2661974384 7.8645669159 5.1548998438
14.5770599686 8.11386589 2.808004787
15.5587846236 1.7825669735 2.2544360807
12.0580937494 6.0501890064 1.5246570111
12.9670592114 3.5270864221 1.9613294047
8.4726511463 3.0063599082 0.4340926849
15.1945163629 6.1003058928 6.3737957082
13.7080901025 0.50704041 1.0012829288
10.0530402092 0.8319251166 0.195826679
4.126910952 12.3924271628 0.3367877495
7.5103356804 16.4229621178 0.3674389521
2.7998805231 9.8198644486 6.0290804707
0.489854987 9.7049226182 2.7008348251
6.2984259861 13.8165925013 0.3279794506
6.7644774524 10.3960824563 2.2209589675
7.4526577014 15.8458951193 4.872003087
5.4373427492 12.7721704891 5.2642112903
0.3404421105 16.2131525644 4.6416131457
1.6133063034 13.0558778696 4.0020303786
0.9785713046 15.8223415107 0.3102430308
13.6828685848 12.9313241923 0.2132978373
12.171758076 10.2819862539 0.9478650351
13.8278251042 15.7037026237 4.9746032856
14.509453172 16.9954760625 2.8062686576
15.7626912379 11.2786206458 4.3341490618
13.9289328085 10.412563151 6.4036248892
7.9604602917 0.4139917261 14.0638197216
7.8706045518 5.3061901584 13.7688437061
4.7104596256 0.2024125903 10.9765435901
5.388217605 5.9649890982 13.7840292316
0.7665154668 9.129243711 8.9480013391
0.2597889345 0.8915697429 7.6891088186
2.3050059597 2.0677022377 10.8706858631
6.9995799283 3.4541720197 12.2827006125
11.7093951163 4.1564620219 12.955276843
15.8181585895 2.3525124776 13.6437798622
12.6769946537 7.5754838759 13.1107760992
16.1680994669 1.1617063096 11.0572321493
8.4911626491 9.2968945569 11.2811020123
11.5665371978 8.6004254863 8.5868931681
15.7091208772 3.1989157462 9.2885353389
12.6775833948 9.0798779371 10.7731975824
9.7477651252 2.8836680049 12.7940004966
8.2280160772 2.0601294553 10.133416988
6.8736289747 13.5459412727 12.5009281313
2.8297954848 11.442654758 11.1438172813
4.269421862 10.8257427884 12.9643532605
5.8693217811 15.8924427435 9.8533686202
6.880885244 10.7889731525 8.6192829161
3.4779120579 17.5610970039 9.766359526
1.1750399291 13.61709933 7.9577616346
7.7019101262 10.3988913619 14.7361400066
2.6717355743 14.2027230189 13.5054360785
11.8090097296 16.5585417785 13.9095551505
9.5562007741 9.9214526155 8.9826572581
15.0858116781 12.970210384 12.9345071863
13.7496320829 10.2564249279 13.3903303886
11.3325597291 11.3712244224 12.4930418937
15.3099748448 17.4146204887 13.85460563
10.7384342871 13.3554249435 8.1619076815
15.6739253607 16.3828375998 10.9719073306
10.2587400885 12.6397457014 10.6177655311
11.8172576783 14.8921529923 9.7852607254
2.2926641583 5.2872077531 4.4989629996
0.6547128673 0.971966191 5.7011412077
5.0279978306 4.3652704582 3.0252580042
4.7936262285 1.7773035872 5.7369406167
0.4523571942 3.1924713725 4.3078561121
0.1936076469 7.5523044244 5.7542311858
6.9343466545 1.5859242437 1.7550563683
5.0078039845 2.4055317855 3.9703473164
6.2278391202 5.7814278912 7.3324065181
2.8978686384 0.844515721 3.8484160414
2.6585781722 4.6026512178 3.1131108425
4.8255663262 6.542935552 6.6308182146
0.8785306748 4.5622440957 5.3122799073
6.4517811608 0.1775206991 0.8121493669
6.2047113604 2.1759080299 4.9761153612
5.5470308592 9.2124466141 5.1709099261
7.6688458062 7.0841493419 4.7436563044
2.2367295614 7.8385386246 2.5110755166
8.0409997714 1.0932251361 6.7760632205
3.3570671007 7.2944404728 6.7442756968
4.3767447335 3.3244632952 1.2803158589
6.6738541286 3.6951036859 5.883407123
6.3799676417 4.9796369557 2.5073872872
2.3658844969 1.4985727383 1.8932363218
6.5663831241 6.1168184511 4.2498816388
1.0035587073 1.5041038757 0.8020880164
4.1715022311 1.8720937044 2.128904243
3.7240489684 6.914304403 2.7856033506
7.237677567 9.2074843631 4.9058704106
0.475044088 6.0876896106 4.6062883419
7.2021537956 8.4638706188 3.4419993349
4.5903813281 6.6194225545 1.0329227409
0.0874065771 4.0333115666 2.6274701115
0.872871929 7.2060429179 3.1529915852
5.4514102081 7.2358842889 3.5645859052
4.5793280605 7.7956709476 5.5265634263
5.5116630287 1.0556260129 2.2683255601
4.608134229 0.1868020822 4.9346791099
5.8911249478 5.1059593821 5.4488876768
0.3361218855 4.642631594 7.0747720635
8.020847422 2.0829353918 2.9198506094
1.2481522312 2.9624010137 1.5976784667
1.6977205506 7.860099057 6.7356077863
5.9115555422 8.5650386453 2.1833392046
4.2166340461 2.2943749929 7.1587150409
2.7575871945 2.5438427649 5.9498092074
4.7079163698 0.0373857756 6.5790585692
2.4311863292 9.388626751 3.9231521553
7.4001208202 2.8867054742 7.0785479487
1.0229177664 9.0242055692 5.5273947071
8.7208832185 6.5301480888 6.1299356757
15.8532253162 8.0264173245 0.6122726489
9.0945449442 8.8214078376 0.396519958
15.979854024 1.7796828254 4.4197732952
15.9675828981 0.4225132824 0.7666957061
15.8911465448 6.4977675076 0.9669553453
8.2313408516 8.5612301519 6.2657864995
9.2408412477 2.0738828495 6.4886747443
13.1524607465 6.813398827 0.1317301721
15.3053538685 4.948843688 1.713991574
13.5198637968 2.4892099634 6.4913696764
11.9498847345 6.2606104469 3.9179729197
10.7251094149 3.0879629302 6.2065050964
10.4104481986 8.579589538 5.2613731522
11.426836223 2.088643675 3.059943154
13.5294072108 5.1442826853 3.1075541718
10.3871298516 3.8492686471 4.5174377058
10.4573738511 5.6633201973 4.4942953888
11.618865353 4.3223451055 0.1398108965
10.6442623484 3.6065220279 2.8936259286
8.9619738257 3.5780066149 2.7101664127
14.226913312 6.3232708158 4.2759653137
11.4231485474 7.0659323645 7.2586986882
12.3051544258 3.246631675 5.5257985886
11.8406225092 1.6059010569 0.4941490498
13.0016789759 8.1468530673 1.475934288
11.3588354294 8.2975186775 1.9775731445
12.4557067137 5.6859112078 6.6174240326
11.7285136106 0.9633657022 4.5106721918
14.7956758302 3.7916065736 0.3048356863
9.7977533568 0.6366156242 6.835968883
8.4593084612 4.9473272892 1.6038246398
9.6712456322 6.0613738795 1.2396985866
14.6818228666 9.2709209344 1.1470305604
11.5329729922 0.7745559469 1.9056061708
11.5032911683 8.5387198134 6.5410011882
14.7963532589 8.1479766982 6.4178551166
15.5026390629 9.1002863983 5.232838002
14.0782153709 9.3858992514 4.1517533856
14.6980044988 5.6006099694 0.1561298724
14.3888994806 0.9435583786 4.26024411
9.7887591724 7.780007576 1.3290480954
12.3126008774 7.6026676417 3.1009424659
0.1756792822 11.5560820821 6.444412827
2.4683870508 15.4967473905 5.9647374516
5.6620401749 13.2004765953 7.1768405319
1.0875354397 10.7885085424 0.1205412686
3.5311029248 15.3495059026 7.393199027
3.4281376139 16.4689068737 4.9967651306
5.395779706 15.6974084066 0.130747797
3.0074153607 9.7860944632 2.3323248168
7.9218374685 15.4310369519 6.7392109659
6.9552753067 14.1532340011 7.2993070179
5.5726410737 11.6040329177 7.1587064185
4.9089973895 14.5262079622 6.4512157509
7.6698423223 12.1247009028 1.0299559056
5.8750460867 11.1590393689 0.5902494913
4.3531719026 14.6664021696 0.8054017336
6.1863482571 9.4713070663 0.6756572432
0.0806346562 16.009436589 2.2399296739
2.6542098191 10.6154985542 0.9664161195
1.18472813 10.2142552138 7.1479121996
4.9463758219 16.0138651282 5.7732354646
3.538761624 14.7657880485 2.3966503952
3.4942371754 17.2810277188 2.0249430925
4.2012231692 16.7304538178 0.5882739947
5.1792724948 18.1269816796 2.1125288722
6.302280486 18.0311344353 6.7382306543
2.373039809 14.3290331752 0.6565684652
1.9588312323 14.4866893536 2.2332539943
5.7684706201 17.4828748325 5.3440304721
2.2457879056 12.9450531089 1.8596068849
7.9791754367 10.7964529122 4.3507420287
1.1914867243 14.3685290358 5.500714378
5.6078615174 14.6663505658 4.7829957266
3.4048828079 16.2031710017 3.2989762909
6.4293471224 17.0800315547 3.0135179501
1.4629835513 11.2760036593 1.8522375803
4.7444530001 13.5270217079 1.9118609456
3.5681696654 12.043530659 4.370222462
3.5577326961 11.8249833609 5.9243268217
4.5265879342 13.99366187 3.6446068494
1.6157521205 12.460772164 5.9984093008
6.8129697527 13.2273933988 2.4257605297
3.7593319711 10.2850840673 3.7650116827
7.6144184821 16.0208041894 2.4531402716
2.2222644972 17.1406902909 6.3067334605
6.6390349165 12.0421010465 3.7544898491
0.0370043649 11.7198481465 2.4551958035
0.4520283582 14.651718094 3.0686164454
0.0524875719 17.679785972 1.2259218454
2.6861383624 17.7866474465 3.687329946
7.978641176 12.5752337792 4.9251506053
8.5474086393 10.9970159419 7.0787809827
14.7917440253 11.9047319467 7.0877306975
9.0741604789 9.9401812059 2.8048347882
10.0342638662 18.3901589343 1.921314733
12.0943769865 17.3800829678 7.1849420532
9.3935827004 15.1075509444 5.6146897114
8.6316940502 14.0778805467 4.4589504208
14.4671032151 14.7905480062 3.1471007403
9.8628871056 14.0032411639 3.3244779483
13.6759627255 15.3434751267 1.3962228683
8.6612543962 10.0853171105 5.6923849026
11.3223927267 18.0230384644 4.4481080423
11.2745248813 14.9104213328 2.9499953778
14.1251749117 18.4458118399 5.7651978129
13.2107193772 12.076607988 5.0366692361
13.0588076736 13.8774208497 4.6572914927
15.4071087182 14.8351081011 5.9442247073
9.9239673968 10.2271554902 4.3227213166
15.9017065394 18.1039740738 6.0742779561
10.7644995721 17.9577792929 6.1512688212
9.1905319775 17.8188284638 0.558113422
15.8366805944 12.2978884827 0.1913671565
8.1119597895 14.4424956491 2.6771073928
13.9047571399 13.6185969273 2.1542032998
11.9563853004 11.3351657789 6.5248877393
13.2233390056 10.7652617694 3.8895015052
10.7238857892 14.3111102222 6.4688977212
15.04652015 16.2349376552 0.9089677757
11.0834838816 17.1521029522 0.7972331309
15.2770038549 17.8058792531 4.5980471568
12.4891561651 13.211788526 3.2157608668
12.1841555146 13.1350766388 6.2145724767
9.6572430619 17.1256316396 4.9959176037
10.0845733462 12.8627554919 1.937855062
9.4182442932 17.8810896117 3.5512339385
9.3053538609 12.0019680888 0.3244397817
10.6304959288 11.6909475332 5.0930297024
14.9929342243 16.533686433 6.2640256828
12.4175728505 16.3739370883 3.7425122194
12.1568609436 16.1188927818 1.9948137208
12.0921612211 9.9937572367 7.2858756328
8.0134123911 7.4122204686 8.8165227634
7.0939213212 7.3453628904 14.4175348696
2.8120951187 3.3353531568 7.5431873397
6.7503909668 3.9623049946 14.2212924328
3.2049973078 2.2398277036 9.0215682684
2.4365599353 5.1564857055 14.4870522804
3.1432652601 1.1054321127 12.4673313492
2.5702517765 0.0887977065 10.9790100105
7.347213024 0.1806070967 9.2755124619
7.8369780326 6.1953103012 7.6183527881
4.8435136709 8.0011939654 10.8767213299
0.9428777495 7.3464399834 8.1119207615
0.5641603676 8.1199164355 11.0200043858
1.9316839462 0.0821515624 13.5514394287
4.29377459 2.2404783354 10.2756973492
6.1814433692 4.543952084 10.4093984541
4.6315250988 1.3745293501 13.1614735692
4.8527784156 4.1993266128 12.8722088482
6.2340601602 0.4626491525 12.429509385
0.986342803 2.788050449 7.7861531961
6.3299160007 3.383469622 8.8787386253
4.3803952325 3.2502994738 14.2600035352
5.1474559336 7.5015487165 9.0814023378
6.1721678159 1.553248984 9.4757981248
7.3436115396 8.0939202196 12.707461239
4.6630748565 6.0470294756 8.486270171
5.8190723999 7.8009565828 13.1128539504
5.5993918931 0.0979630619 13.9902087197
6.4267116181 8.4148489612 9.8032257968
1.8267362243 3.2530531838 12.5550950685
0.3542330901 0.2276579228 13.1782103082
7.158868346 4.595446109 7.7426109677
3.295392864 3.9838177452 11.8178254059
3.5315282021 6.4145468316 14.0660313051
3.1755672772 4.847692767 8.5938247051
2.2525915249 6.1203987967 9.4605846188
2.9654378759 3.9488761637 13.6422890128
4.3137753004 7.1003818019 12.275467154
0.4568674569 3.1711439945 11.6577364878
7.6408074652 1.2305462268 11.956448805
2.4640902956 4.5519408716 10.4150838578
1.4342152361 1.4639885284 8.9598054571
7.2870718062 5.5459540174 11.3601808438
15.1642545795 9.081955142 14.1732029292
14.592702203 2.3020454811 8.0398031293
10.9985610424 1.1165521186 8.7273408624
9.4852879266 7.4231304287 11.1954819371
12.7150065046 7.0791701464 9.796648708
8.8116931055 9.2410742924 13.4715616565
11.2210136795 2.0024565797 13.7030497424
8.6563566009 4.4926300486 11.9552979336
11.8377109547 5.980417578 12.5048281866
13.2323951041 3.0135325047 12.5314283666
11.7903900194 0.0059728495 11.6086837909
14.2641620381 8.5276662088 12.5254090272
12.2462513824 1.5479744478 12.2480759211
11.7740047404 2.5649163041 9.5898655047
9.8095038853 7.8179895088 9.4999625359
10.2281005174 5.3093887202 11.8890694922
9.1868539441 3.5576879267 9.2290184892
9.9767959807 2.1401254547 9.2423683965
11.0368616284 5.3681727852 9.8295619276
11.4782693754 4.9289978812 8.1679910011
13.1537775338 3.8231365311 14.4843901378
14.1255120413 2.3159222353 14.7843492616
15.0426431381 7.9377565967 10.9474355686
15.3374772883 4.5461149525 11.0868812649
16.1527803794 5.9437912273 8.460523105
10.9313480404 6.673116978 8.9009079802
10.4641101744 9.1706851302 10.6615175893
14.973664796 0.0436632486 12.3838185517
10.994564493 8.3259009432 11.9945030001
12.1096326383 3.0880015752 11.1112345874
14.9981193525 9.2122859166 8.4319254597
12.2817305569 5.8074571893 14.0296982178
10.1740497406 3.8963818501 7.9020665252
13.9316451041 3.9296347199 8.7397018387
9.9068861833 4.1808736987 14.5372206943
12.9724818851 6.5439773979 11.3553556414
14.0140385959 0.5494429916 8.2895857441
14.7944949708 5.1965624219 9.6556811719
8.867253211 5.045096439 8.4959021508
14.6465328765 6.9950715208 12.4399085871
10.5870854826 0.944753734 12.5393489831
9.1455813999 0.9677674454 11.7290502313
15.0473555568 3.2688144847 11.8550915533
3.5708120158 18.0209275807 7.8018080742
2.3185838481 10.2844400622 8.4263054304
7.3016953749 13.3339610746 8.7910534262
3.326346429 15.4447703657 8.8718476103
4.9126884095 11.39485729 9.9679909856
0.7664828475 15.4025522781 8.6287767819
4.7693461242 15.7376234685 11.7385275514
6.5069995044 11.1286762764 12.186351526
3.5186467235 15.6116229553 12.808000037
3.6303554517 12.7824046581 12.7177463787
5.8580159987 12.200463187 13.5463905049
5.9151751075 17.9532603326 9.8107290336
4.8146264731 17.5331559667 14.0750584533
2.6584904394 9.5637014667 9.8562291648
4.3655012266 14.0162388531 11.9764658263
3.9636565074 14.6403049723 10.2676957435
4.1632064077 12.8187694248 9.7992662393
0.7211283496 12.026004193 11.5119793983
5.5309124353 17.3062547761 11.3058252726
4.3061712771 17.3352163841 12.5096505045
1.3514944581 17.6712257022 10.6519409264
2.7108028984 12.268867091 9.0384815683
2.6892852833 17.8780721906 12.1904502736
0.4092234033 9.8448301292 13.6299341629
5.7042184069 9.9066784031 10.2355066646
1.8998531698 15.929634769 7.6123565823
2.1477484525 9.9014733176 14.0481533926
1.9475453611 18.7673314034 8.1467330274
0.4804089264 18.2465683663 9.2285046075
2.7048890011 11.9925611694 13.9107540196
6.6102268807 15.261025156 11.6699218851
7.970306674 15.6150520646 12.5546182586
6.179740786 15.223858865 13.3568941486
1.4641556785 17.3972327002 14.1039486965
0.8504880646 14.5178660992 13.5466672806
6.5771497757 13.8946936052 10.3628627068
1.0712980883 10.2057253775 11.5527534919
6.9655043744 9.8536708293 12.9841488983
1.4415621833 12.9387264876 10.0241425585
5.3233419626 9.8548964023 7.5265847678
2.6139541156 11.7163427444 7.4167382428
1.8646242335 15.9558933113 13.4053427003
3.7893047668 9.7391201585 8.2538348281
12.5806896986 12.6238279499 10.9279398162
15.4109911929 15.124095671 13.9230973803
8.5740055728 13.2206601228 14.2344466776
13.4015162361 11.1675246543 11.5967937408
10.3634162968 12.4439840258 13.9483061419
11.0275258563 15.2616202409 12.5254763841
9.6541045186 16.3745109156 12.3796771711
14.9496431099 11.9779528236 8.9988650492
13.3968029921 17.8138823912 13.3996923054
13.8243368301 14.4608911831 13.4608001264
9.9742030691 10.6978136768 11.286711215
11.7815652219 9.7421290034 13.6473933782
8.516993234 11.196582336 10.3154902709
8.3077157453 12.7290718989 11.4532382713
12.1032014128 12.3491886859 9.4033633492
13.1024166724 12.4560271035 12.466652574
10.2559853285 13.5903248513 12.4384031441
12.7834141329 15.4938736968 12.4901228
13.8638498728 16.5378197355 9.8361366616
12.7870457967 13.4366193224 7.8716701659
12.0035659747 10.4984949469 9.2410624768
10.3560901561 14.7136158832 14.1927271519
15.9463590556 12.9500976913 10.1840872476
13.2631828527 9.4399868585 8.5358856788
10.3199680605 17.0167308342 7.8150121433
13.5706071772 15.0468815427 8.5570172192
15.4536444642 14.403078115 11.22126901
14.1211823428 15.3545514024 11.1818542159
9.8092034586 14.5201455682 9.1994659919
12.3238301387 18.6968692722 14.5755184917
15.9840295599 10.8226109017 8.0187527503
8.6882879085 18.3007523175 8.5907868143
11.9239284392 15.7728166235 7.6962874368
14.8074626606 16.2402382389 8.3004514377
15.8569275154 10.8809282184 12.4298303872
8.5189067426 11.9364310658 8.6136620516
9.696471822 15.1425581569 7.4379751899
10.2353057081 18.5637684961 11.40832662
11.9972615024 12.487003174 14.1424096474
8.5973522421 15.1496477878 13.9993216699
10.4815949215 10.7385555374 14.7021728133
9.7482386133 16.5623577511 14.2039409413
3.7620973646 4.9369662754 1.9079222786
6.5994555977 1.6633358637 3.462224779
4.9881014765 3.8582055428 4.7429227013
1.5873964403 1.7864549093 4.5874248255
1.8152503207 4.4815294452 1.671517155
6.4178609775 5.6881858657 0.6956648679
3.308380516 0.1270009747 2.3967669597
1.1262347874 7.273313708 1.3286796202
5.8938575907 7.8436275543 0.6479091154
2.1011773136 3.4773273676 4.3486497773
1.1012441247 5.6300110356 0.6051904723
15.3066897458 6.205718466 2.8118798156
8.355285673 0.4205505722 1.3167648584
8.8449921559 8.082303991 3.2647081667
12.8346978451 2.2301473674 3.9602475
11.7388133638 5.0480175496 5.2025027714
9.7303661919 7.1918952203 4.5592529241
14.2214086774 4.1765052576 6.8221637495
10.2852264285 4.5775681965 1.5021349716
13.2477456335 1.1567457544 5.623214256
12.6862669366 3.8907133918 4.0453127464
10.3815145936 9.2023033002 2.9087325717
10.8102062753 0.286233419 3.3769431436
9.9806013097 7.5273011861 6.4057930859
5.9101643134 18.6620211869 3.6793033851
5.4341746487 10.6590853526 4.4110742358
4.7655488991 10.5666211953 6.2665718654
6.9808610822 13.6404884019 4.239667322
7.6400590383 17.080193449 7.0062540143
3.5374943573 12.8885032119 2.8678006708
14.8784864757 18.0995447096 7.3916564611
11.4134715387 13.558294354 0.3581141247
14.5321930955 10.5432725246 2.397571572
10.2028652197 9.7476514047 1.3479552539
15.0168415352 13.1487883191 6.212092458
13.3183781476 11.7900572308 2.24056943
12.6783505689 17.4687962708 5.2605668373
11.9970561182 14.4130796489 1.5055860252
11.5559086131 11.0516801318 3.9620615719
10.6867864276 12.4079300629 3.4181206177
9.1834287417 17.8434364923 7.053269306
15.6582072319 13.2171338694 3.2053944728
8.4145090069 17.7619115149 2.2454945839
11.5549260019 11.9847594733 2.0775857551
13.2930903539 16.3350626469 6.9330781194
14.704787736 13.5733435154 4.7986102062
14.8418387639 12.2208835977 1.6399774076
9.0207998846 11.8522919299 5.6184887711
1.7917556354 6.8131971474 14.3391147063
1.4481057805 1.3635310867 12.4914160209
4.9089246029 2.3453686398 8.6977646447
1.2337664265 7.1676294991 12.7227479657
4.2159029723 8.7552941793 12.731072412
4.9413822274 4.5196168532 9.3527796768
1.9932109009 7.7163895368 9.575301484
3.5696172243 8.2604928875 9.8963699363
4.9191456592 3.7359794477 11.0992361147
2.8032717219 7.9113212256 12.9160995133
5.7637169262 2.0308292411 11.4080837517
1.4502988777 6.5193996889 11.0988500831
7.7578956736 7.1575560454 10.7745810595
1.2428377412 8.9501602623 12.5763428441
7.8146857535 4.0562628892 9.6483290229
8.7848069221 6.092202265 11.780394243
9.2081224441 7.2915522945 14.5169951206
8.9037957574 0.2645188378 10.2903165932
13.1236920924 8.8266461354 14.5307312051
14.4292094202 1.6919760361 12.0818093049
13.5097343062 5.1201566088 7.7204680115
13.4524375851 0.090587224 11.7586340793
14.8403119346 6.9822880781 14.3275509612
15.3090531508 7.4933260707 8.030420779
12.6597558096 1.593350911 8.3662950389
14.7343621042 0.7453308228 13.9983414979
14.2828598099 6.3578731335 8.728888317
12.2168380334 4.8933927098 11.2174130508
14.2913206744 8.0390569237 9.3394930518
15.8617469549 6.3211995051 11.4752610344
10.2433180648 6.7914546417 12.917623175
12.429035126 4.3164153721 9.7340818897
0.3298569035 16.2771254644 12.9799861993
0.9060825491 12.5400591255 13.7933312419
7.1176380981 15.5514702786 8.365859002
2.205400375 14.7853786278 10.3107607235
5.7706129278 12.5928225737 8.8445759001
0.6845631834 14.512760649 9.9948128333
1.4302516835 16.0955867131 11.4465756596
7.0302843201 17.3821573434 8.598472683
3.951136151 9.5165383731 10.9003783392
5.6151489097 9.7686929989 13.905597079
14.346382166 13.3675054066 8.1089236804
12.7117773971 17.9902075689 10.023715433
11.475560173 17.076075634 9.0652404904
14.7480640561 17.7416796377 9.2713686944
14.209621209 16.247172948 12.9248189319
12.0946383431 18.7722881757 8.5437643675
13.4773738021 13.8950998805 11.794005523
13.3909860258 11.3001555005 9.7977295945
8.9251877203 15.8655545437 9.0394428292
9.9844185524 17.2447803049 9.8684838195
8.4349102482 13.7616849522 9.9640204173
15.4025348806 10.9450749669 13.9603549997
10.2789721313 9.5497048448 12.8054634414
15.5475853179 14.7799928419 7.7735998426
