TITL Fe23B6.vasp  -0.001699127948934841  296.4246710221486  -236.11489034910835 0 0 29 (Fm-3m)  n - 1
REM
REM
CELL 1.54180    7.484161    7.484161    7.484161    59.999996    59.999998    59.999997    
LATT -1
SFAC Fe  B  
Fe  1  0.9999999999999999  0.9999999999999999  0.9999999999999997  1.0  
Fe  1  0.25000000002220285  0.2499999999528504  0.24999999986611723  1.0  
Fe  1  0.7499999999777954  0.7500000000471486  0.750000000133883  1.0  
Fe  1  2.1444504679426113e-11  0.3421543325041599  2.13985659367713e-11  1.0  
Fe  1  0.3421543312783114  0.9999999982028573  1.8258024146501195e-09  1.0  
Fe  1  0.9999999981791954  0.3421543314582027  0.6578456685600327  1.0  
Fe  1  0.6578456673620015  1.620957629602422e-11  0.3421543326055315  1.0  
Fe  1  0.3421543326379976  0.9999999999837896  0.657845667394468  1.0  
Fe  1  1.842223724438823e-09  0.9999999982190486  0.34215433132938555  1.0  
Fe  1  0.6578456686112314  0.34215433137439094  0.9999999981955708  1.0  
Fe  1  1.820802751154727e-09  0.6578456685417972  0.342154331439967  1.0  
Fe  1  0.9999999981577748  1.7809509740432052e-09  0.657845668670614  1.0  
Fe  1  0.342154331388767  0.6578456686256088  1.804428678043538e-09  1.0  
Fe  1  0.6578456687216879  1.7971421412936864e-09  0.9999999981741969  1.0  
Fe  1  0.9999999999785542  0.65784566749584  0.9999999999786013  1.0  
Fe  1  0.3812477415324527  0.38124774249153076  0.38124774164980846  1.0  
Fe  1  0.14374322555147268  0.6187522584220254  0.6187522574495805  1.0  
Fe  1  0.6187522584772592  0.143743225489606  0.6187522583597292  1.0  
Fe  1  0.6187522575745646  0.6187522584292321  0.14374322541189957  1.0  
Fe  1  0.3812477415227388  0.8562567745103931  0.3812477416402706  1.0  
Fe  1  0.3812477424254331  0.3812477415707674  0.8562567745881005  1.0  
Fe  1  0.856256774448525  0.3812477415779745  0.38124774255041977  1.0  
Fe  1  0.6187522584675451  0.6187522575084692  0.6187522583501913  1.0  
B  1  0.275753044184538  0.7242469558125816  0.27575304418702085  1.0  
B  1  0.27575305621232854  0.7242469437897284  0.7242469437880251  1.0  
B  1  0.72424694378767  0.27575305621027124  0.2757530562119748  1.0  
B  1  0.7242469437890946  0.7242469437885818  0.27575305621347634  1.0  
B  1  0.2757530562109029  0.27575305621141794  0.7242469437865238  1.0  
B  1  0.7242469558154606  0.2757530441874181  0.7242469558129785  1.0  
END
