"B2 Cr18"
1.0
       11.5348625183         0.0000000000         0.0000000000
        0.0000000000        15.3599948883         0.0000000000
        0.0000000000         0.0000000000        20.5413799286
    B   Cr
   32  288
Direct
     0.014770278         0.308163157         0.067470514
     0.014770278         0.308163157         0.567470514
     0.014770278         0.808163157         0.067470514
     0.014770278         0.808163157         0.567470514
     0.264770278         0.308163157         0.067470514
     0.264770278         0.308163157         0.567470514
     0.264770278         0.808163157         0.067470514
     0.264770278         0.808163157         0.567470514
     0.514770278         0.308163157         0.067470514
     0.514770278         0.308163157         0.567470514
     0.514770278         0.808163157         0.067470514
     0.514770278         0.808163157         0.567470514
     0.764770278         0.308163157         0.067470514
     0.764770278         0.308163157         0.567470514
     0.764770278         0.808163157         0.067470514
     0.764770278         0.808163157         0.567470514
     0.136752972         0.401839463         0.212962008
     0.136752972         0.401839463         0.712962008
     0.136752972         0.901839463         0.212962008
     0.136752972         0.901839463         0.712962008
     0.386752972         0.401839463         0.212962008
     0.386752972         0.401839463         0.712962008
     0.386752972         0.901839463         0.212962008
     0.386752972         0.901839463         0.712962008
     0.636752972         0.401839463         0.212962008
     0.636752972         0.401839463         0.712962008
     0.636752972         0.901839463         0.212962008
     0.636752972         0.901839463         0.712962008
     0.886752972         0.401839463         0.212962008
     0.886752972         0.401839463         0.712962008
     0.886752972         0.901839463         0.212962008
     0.886752972         0.901839463         0.712962008
     0.012308579         0.292577087         0.388340752
     0.012308579         0.292577087         0.888340752
     0.012308579         0.792577087         0.388340752
     0.012308579         0.792577087         0.888340752
     0.262308579         0.292577087         0.388340752
     0.262308579         0.292577087         0.888340752
     0.262308579         0.792577087         0.388340752
     0.262308579         0.792577087         0.888340752
     0.512308579         0.292577087         0.388340752
     0.512308579         0.292577087         0.888340752
     0.512308579         0.792577087         0.388340752
     0.512308579         0.792577087         0.888340752
     0.762308579         0.292577087         0.388340752
     0.762308579         0.292577087         0.888340752
     0.762308579         0.792577087         0.388340752
     0.762308579         0.792577087         0.888340752
     0.011623242         0.411048575         0.292622235
     0.011623242         0.411048575         0.792622235
     0.011623242         0.911048575         0.292622235
     0.011623242         0.911048575         0.792622235
     0.261623242         0.411048575         0.292622235
     0.261623242         0.411048575         0.792622235
     0.261623242         0.911048575         0.292622235
     0.261623242         0.911048575         0.792622235
     0.511623242         0.411048575         0.292622235
     0.511623242         0.411048575         0.792622235
     0.511623242         0.911048575         0.292622235
     0.511623242         0.911048575         0.792622235
     0.761623242         0.411048575         0.292622235
     0.761623242         0.411048575         0.792622235
     0.761623242         0.911048575         0.292622235
     0.761623242         0.911048575         0.792622235
     0.139179239         0.299516846         0.487857490
     0.139179239         0.299516846         0.987857490
     0.139179239         0.799516846         0.487857490
     0.139179239         0.799516846         0.987857490
     0.389179239         0.299516846         0.487857490
     0.389179239         0.299516846         0.987857490
     0.389179239         0.799516846         0.487857490
     0.389179239         0.799516846         0.987857490
     0.639179239         0.299516846         0.487857490
     0.639179239         0.299516846         0.987857490
     0.639179239         0.799516846         0.487857490
     0.639179239         0.799516846         0.987857490
     0.889179239         0.299516846         0.487857490
     0.889179239         0.299516846         0.987857490
     0.889179239         0.799516846         0.487857490
     0.889179239         0.799516846         0.987857490
     0.139154124         0.405947470         0.099713406
     0.139154124         0.405947470         0.599713406
     0.139154124         0.905947470         0.099713406
     0.139154124         0.905947470         0.599713406
     0.389154124         0.405947470         0.099713406
     0.389154124         0.405947470         0.599713406
     0.389154124         0.905947470         0.099713406
     0.389154124         0.905947470         0.599713406
     0.639154124         0.405947470         0.099713406
     0.639154124         0.405947470         0.599713406
     0.639154124         0.905947470         0.099713406
     0.639154124         0.905947470         0.599713406
     0.889154124         0.405947470         0.099713406
     0.889154124         0.405947470         0.599713406
     0.889154124         0.905947470         0.099713406
     0.889154124         0.905947470         0.599713406
     0.012305961         0.304273953         0.180680592
     0.012305961         0.304273953         0.680680592
     0.012305961         0.804273953         0.180680592
     0.012305961         0.804273953         0.680680592
     0.262305961         0.304273953         0.180680592
     0.262305961         0.304273953         0.680680592
     0.262305961         0.804273953         0.180680592
     0.262305961         0.804273953         0.680680592
     0.512305961         0.304273953         0.180680592
     0.512305961         0.304273953         0.680680592
     0.512305961         0.804273953         0.180680592
     0.512305961         0.804273953         0.680680592
     0.762305961         0.304273953         0.180680592
     0.762305961         0.304273953         0.680680592
     0.762305961         0.804273953         0.180680592
     0.762305961         0.804273953         0.680680592
     0.011516183         0.161925170         0.286042840
     0.011516183         0.161925170         0.786042840
     0.011516183         0.661925170         0.286042840
     0.011516183         0.661925170         0.786042840
     0.261516183         0.161925170         0.286042840
     0.261516183         0.161925170         0.786042840
     0.261516183         0.661925170         0.286042840
     0.261516183         0.661925170         0.786042840
     0.511516183         0.161925170         0.286042840
     0.511516183         0.161925170         0.786042840
     0.511516183         0.661925170         0.286042840
     0.511516183         0.661925170         0.786042840
     0.761516183         0.161925170         0.286042840
     0.761516183         0.161925170         0.786042840
     0.761516183         0.661925170         0.286042840
     0.761516183         0.661925170         0.786042840
     0.012264000         0.042749489         0.392613754
     0.012264000         0.042749489         0.892613754
     0.012264000         0.542749489         0.392613754
     0.012264000         0.542749489         0.892613754
     0.262264000         0.042749489         0.392613754
     0.262264000         0.042749489         0.892613754
     0.262264000         0.542749489         0.392613754
     0.262264000         0.542749489         0.892613754
     0.512264000         0.042749489         0.392613754
     0.512264000         0.042749489         0.892613754
     0.512264000         0.542749489         0.392613754
     0.512264000         0.542749489         0.892613754
     0.762264000         0.042749489         0.392613754
     0.762264000         0.042749489         0.892613754
     0.762264000         0.542749489         0.392613754
     0.762264000         0.542749489         0.892613754
     0.013627529         0.422913014         0.494733174
     0.013627529         0.422913014         0.994733174
     0.013627529         0.922913014         0.494733174
     0.013627529         0.922913014         0.994733174
     0.263627529         0.422913014         0.494733174
     0.263627529         0.422913014         0.994733174
     0.263627529         0.922913014         0.494733174
     0.263627529         0.922913014         0.994733174
     0.513627529         0.422913014         0.494733174
     0.513627529         0.422913014         0.994733174
     0.513627529         0.922913014         0.494733174
     0.513627529         0.922913014         0.994733174
     0.763627529         0.422913014         0.494733174
     0.763627529         0.422913014         0.994733174
     0.763627529         0.922913014         0.494733174
     0.763627529         0.922913014         0.994733174
     0.134587757         0.149991075         0.188479728
     0.134587757         0.149991075         0.688479728
     0.134587757         0.649991075         0.188479728
     0.134587757         0.649991075         0.688479728
     0.384587757         0.149991075         0.188479728
     0.384587757         0.149991075         0.688479728
     0.384587757         0.649991075         0.188479728
     0.384587757         0.649991075         0.688479728
     0.634587757         0.149991075         0.188479728
     0.634587757         0.149991075         0.688479728
     0.634587757         0.649991075         0.188479728
     0.634587757         0.649991075         0.688479728
     0.884587757         0.149991075         0.188479728
     0.884587757         0.149991075         0.688479728
     0.884587757         0.649991075         0.188479728
     0.884587757         0.649991075         0.688479728
     0.137739993         0.418099209         0.392243127
     0.137739993         0.418099209         0.892243127
     0.137739993         0.918099209         0.392243127
     0.137739993         0.918099209         0.892243127
     0.387739993         0.418099209         0.392243127
     0.387739993         0.418099209         0.892243127
     0.387739993         0.918099209         0.392243127
     0.387739993         0.918099209         0.892243127
     0.637739993         0.418099209         0.392243127
     0.637739993         0.418099209         0.892243127
     0.637739993         0.918099209         0.392243127
     0.637739993         0.918099209         0.892243127
     0.887739993         0.418099209         0.392243127
     0.887739993         0.418099209         0.892243127
     0.887739993         0.918099209         0.392243127
     0.887739993         0.918099209         0.892243127
     0.137541271         0.167925757         0.387976363
     0.137541271         0.167925757         0.887976363
     0.137541271         0.667925757         0.387976363
     0.137541271         0.667925757         0.887976363
     0.387541271         0.167925757         0.387976363
     0.387541271         0.167925757         0.887976363
     0.387541271         0.667925757         0.387976363
     0.387541271         0.667925757         0.887976363
     0.637541271         0.167925757         0.387976363
     0.637541271         0.167925757         0.887976363
     0.637541271         0.667925757         0.387976363
     0.637541271         0.667925757         0.887976363
     0.887541271         0.167925757         0.387976363
     0.887541271         0.167925757         0.887976363
     0.887541271         0.667925757         0.387976363
     0.887541271         0.667925757         0.887976363
     0.015111899         0.060298807         0.092073847
     0.015111899         0.060298807         0.592073847
     0.015111899         0.560298807         0.092073847
     0.015111899         0.560298807         0.592073847
     0.265111899         0.060298807         0.092073847
     0.265111899         0.060298807         0.592073847
     0.265111899         0.560298807         0.092073847
     0.265111899         0.560298807         0.592073847
     0.515111899         0.060298807         0.092073847
     0.515111899         0.060298807         0.592073847
     0.515111899         0.560298807         0.092073847
     0.515111899         0.560298807         0.592073847
     0.765111899         0.060298807         0.092073847
     0.765111899         0.060298807         0.592073847
     0.765111899         0.560298807         0.092073847
     0.765111899         0.560298807         0.592073847
     0.136299500         0.035229111         0.289402642
     0.136299500         0.035229111         0.789402642
     0.136299500         0.535229111         0.289402642
     0.136299500         0.535229111         0.789402642
     0.386299500         0.035229111         0.289402642
     0.386299500         0.035229111         0.789402642
     0.386299500         0.535229111         0.289402642
     0.386299500         0.535229111         0.789402642
     0.636299500         0.035229111         0.289402642
     0.636299500         0.035229111         0.789402642
     0.636299500         0.535229111         0.289402642
     0.636299500         0.535229111         0.789402642
     0.886299500         0.035229111         0.289402642
     0.886299500         0.035229111         0.789402642
     0.886299500         0.535229111         0.289402642
     0.886299500         0.535229111         0.789402642
     0.140463191         0.209212550         0.091984580
     0.140463191         0.209212550         0.591984580
     0.140463191         0.709212550         0.091984580
     0.140463191         0.709212550         0.591984580
     0.390463191         0.209212550         0.091984580
     0.390463191         0.209212550         0.591984580
     0.390463191         0.709212550         0.091984580
     0.390463191         0.709212550         0.591984580
     0.640463191         0.209212550         0.091984580
     0.640463191         0.209212550         0.591984580
     0.640463191         0.709212550         0.091984580
     0.640463191         0.709212550         0.591984580
     0.890463191         0.209212550         0.091984580
     0.890463191         0.209212550         0.591984580
     0.890463191         0.709212550         0.091984580
     0.890463191         0.709212550         0.591984580
     0.136875762         0.287753247         0.285906843
     0.136875762         0.287753247         0.785906843
     0.136875762         0.787753247         0.285906843
     0.136875762         0.787753247         0.785906843
     0.386875762         0.287753247         0.285906843
     0.386875762         0.287753247         0.785906843
     0.386875762         0.787753247         0.285906843
     0.386875762         0.787753247         0.785906843
     0.636875762         0.287753247         0.285906843
     0.636875762         0.287753247         0.785906843
     0.636875762         0.787753247         0.285906843
     0.636875762         0.787753247         0.785906843
     0.886875762         0.287753247         0.285906843
     0.886875762         0.287753247         0.785906843
     0.886875762         0.787753247         0.285906843
     0.886875762         0.787753247         0.785906843
     0.014464338         0.175504668         0.491251982
     0.014464338         0.175504668         0.991251982
     0.014464338         0.675504668         0.491251982
     0.014464338         0.675504668         0.991251982
     0.264464338         0.175504668         0.491251982
     0.264464338         0.175504668         0.991251982
     0.264464338         0.675504668         0.491251982
     0.264464338         0.675504668         0.991251982
     0.514464338         0.175504668         0.491251982
     0.514464338         0.175504668         0.991251982
     0.514464338         0.675504668         0.491251982
     0.514464338         0.675504668         0.991251982
     0.764464338         0.175504668         0.491251982
     0.764464338         0.175504668         0.991251982
     0.764464338         0.675504668         0.491251982
     0.764464338         0.675504668         0.991251982
     0.010687520         0.000752743         0.188460943
     0.010687520         0.000752743         0.688460943
     0.010687520         0.500752743         0.188460943
     0.010687520         0.500752743         0.688460943
     0.260687520         0.000752743         0.188460943
     0.260687520         0.000752743         0.688460943
     0.260687520         0.500752743         0.188460943
     0.260687520         0.500752743         0.688460943
     0.510687520         0.000752743         0.188460943
     0.510687520         0.000752743         0.688460943
     0.510687520         0.500752743         0.188460943
     0.510687520         0.500752743         0.688460943
     0.760687520         0.000752743         0.188460943
     0.760687520         0.000752743         0.688460943
     0.760687520         0.500752743         0.188460943
     0.760687520         0.500752743         0.688460943
     0.138754162         0.048663611         0.494503182
     0.138754162         0.048663611         0.994503182
     0.138754162         0.548663611         0.494503182
     0.138754162         0.548663611         0.994503182
     0.388754162         0.048663611         0.494503182
     0.388754162         0.048663611         0.994503182
     0.388754162         0.548663611         0.494503182
     0.388754162         0.548663611         0.994503182
     0.638754162         0.048663611         0.494503182
     0.638754162         0.048663611         0.994503182
     0.638754162         0.548663611         0.494503182
     0.638754162         0.548663611         0.994503182
     0.888754162         0.048663611         0.494503182
     0.888754162         0.048663611         0.994503182
     0.888754162         0.548663611         0.494503182
     0.888754162         0.548663611         0.994503182
