TITL Fe23B6.vasp  10.00265295902605  288.33265407929696  -378.38467002038544 0 0 29 (Fm-3m)  n - 1
REM
REM
CELL 1.54180    7.415429    7.415432    7.41543    59.99996    59.999962    60.000005    
LATT -1
SFAC Fe  B  
Fe  1  1.29125504809694e-16  2.2884705055517674e-16  5.287950789363525e-17  1.0  
Fe  1  0.24999999976040577  0.2500000004874263  0.24999999881582322  1.0  
Fe  1  0.7500000002395949  0.7499999995125749  0.7500000011841792  1.0  
Fe  1  0.9999999995027539  0.3429364264230746  6.384871557182226e-10  1.0  
Fe  1  0.3429364269483638  0.9999999997618193  6.081589693461222e-10  1.0  
Fe  1  0.9999999993138696  0.3429364281520647  0.6570635723738598  1.0  
Fe  1  0.6570635718133802  7.16460830831972e-10  0.3429364278894354  1.0  
Fe  1  0.34293642818662184  0.9999999992835402  0.6570635721105662  1.0  
Fe  1  1.8888515466199214e-10  4.782796630202529e-10  0.3429364263491113  1.0  
Fe  1  0.6570635737004931  0.3429364265282448  3.0329964932796253e-11  1.0  
Fe  1  6.861312984162114e-10  0.6570635718479372  0.34293642762614185  1.0  
Fe  1  0.9999999998111162  0.9999999995217214  0.6570635736508891  1.0  
Fe  1  0.34293642629950777  0.6570635734717556  0.9999999999696727  1.0  
Fe  1  0.6570635730516369  2.381809081903468e-10  0.9999999993918428  1.0  
Fe  1  4.972463365381926e-10  0.657063573576926  0.9999999993615145  1.0  
Fe  1  0.3820451516629947  0.382045150394002  0.3820451509754047  1.0  
Fe  1  0.14613545180632168  0.6179548508796298  0.617954847682251  1.0  
Fe  1  0.6179548500791298  0.14613545256433946  0.6179548472562414  1.0  
Fe  1  0.6179548487223002  0.6179548490967919  0.1461354508214696  1.0  
Fe  1  0.382045149920872  0.8538645474356615  0.382045152743761  1.0  
Fe  1  0.3820451512777011  0.38204515090320845  0.8538645491785337  1.0  
Fe  1  0.8538645481936802  0.3820451491203705  0.38204515231775116  1.0  
Fe  1  0.6179548483370068  0.6179548496059978  0.6179548490245984  1.0  
B  1  0.2759464164962216  0.72405358332729  0.2759464167354869  1.0  
B  1  0.27594641653668517  0.7240535838239623  0.7240535834005417  1.0  
B  1  0.7240535834633165  0.2759464161760383  0.2759464165994609  1.0  
B  1  0.724053582624974  0.7240535828091298  0.27594641755151783  1.0  
B  1  0.27594641737502806  0.27594641719087104  0.724053582448485  1.0  
B  1  0.7240535835037807  0.2759464166727104  0.724053583264515  1.0  
END
