TITL Fe3B.vasp  0.0019981278998452614  158.36841417245793  -204.7384078668711 0 0 16 (Pnma)  n - 1
REM
REM
CELL 1.54180    4.363468    5.501245    6.597445    89.998755    89.99738    89.999082    
LATT -1
SFAC Fe  B  
Fe  1  0.6065785961229483  0.9812533111197497  0.24999998135671583  1.0  
Fe  1  0.6450733740235262  0.6758458034396327  0.5549178434070472  1.0  
Fe  1  0.6450734514239824  0.6758461527152791  0.9450820958321077  1.0  
Fe  1  0.8549263340027436  0.1758458950993076  0.5549178752711037  1.0  
Fe  1  0.8549266604164641  0.1758459907444878  0.9450821234851406  1.0  
Fe  1  0.8934213586768226  0.4812532419715579  0.25000017314530026  1.0  
Fe  1  0.10657864132317457  0.518746758028441  0.7499998268547023  1.0  
Fe  1  0.1450733395835329  0.824154009255511  0.05491787651486251  1.0  
Fe  1  0.14507366599725263  0.8241541049006902  0.4450821247288991  1.0  
Fe  1  0.3549265485760148  0.32415384728471996  0.05491790416789545  1.0  
Fe  1  0.354926625976471  0.32415419656036626  0.44508215659295564  1.0  
Fe  1  0.3934214038770487  0.01874668888024872  0.7500000186432868  1.0  
B  1  0.576353468245443  0.385823269117206  0.7499998521395553  1.0  
B  1  0.9236465640412153  0.8858233189966612  0.7499999979549533  1.0  
B  1  0.07635343595878186  0.11417668100333715  0.25000000204505024  1.0  
B  1  0.423646531754554  0.6141767308827929  0.25000014786044783  1.0  
END
