TITL FeB4.vasp  0.00012126856939982257  71.42938908093737  -72.1081679232718 0 0 10 (Pnnm)  n - 1
REM
REM
CELL 1.54180    4.603915    5.294296    2.930498    90.0    90.0    90.0    
LATT -1
SFAC Fe  B  
Fe  1  0.49999999999999994  0.9999999999999997  7.392725695856568e-16  1.0  
Fe  1  0.9999999999999998  0.4999999999999996  0.5000000000000007  1.0  
B  1  0.16689347834727827  0.8703354698956994  0.4999999999998242  1.0  
B  1  0.8331065216527216  0.12966453010429957  0.5000000000001776  1.0  
B  1  0.6668934783475017  0.62966453010448  1.7206608384382977e-13  1.0  
B  1  0.3331065216524983  0.37033546989551924  0.9999999999998294  1.0  
B  1  0.757891189018098  0.8148869774809434  0.4999999999999211  1.0  
B  1  0.24210881098190154  0.18511302251905587  0.5000000000000807  1.0  
B  1  0.25789118901805314  0.6851130225193262  1.0710646853318538e-13  1.0  
B  1  0.7421088109819467  0.31488697748067296  0.9999999999998944  1.0  
END
