TITL FeB2.vasp  0.00557954179204397  84.73036223872894  -117.26315343656574 0 0 12 (Pnma)  n - 1
REM
REM
CELL 1.54180    4.855012    4.796707    3.638359    90.0    90.0    90.0    
LATT -1
SFAC Fe  B  
Fe  1  0.5279510382755943  0.7499999999999661  0.3779452410503121  1.0  
Fe  1  0.027951038275584254  0.7500000000000335  0.12205475894969278  1.0  
Fe  1  0.472048961724406  0.25000000000003336  0.6220547589496893  1.0  
Fe  1  0.9720489617244161  0.24999999999996575  0.8779452410503087  1.0  
B  1  0.33572772058848094  0.0664560644897397  0.1046349583133726  1.0  
B  1  0.8357277205885203  0.4335439355102429  0.39536504168674774  1.0  
B  1  0.6642722794115294  0.5664560644897042  0.8953650416867649  1.0  
B  1  0.16427227941148786  0.9335439355102871  0.6046349583131246  1.0  
B  1  0.6642722794115192  0.9335439355102597  0.895365041686629  1.0  
B  1  0.1642722794114801  0.5664560644897565  0.6046349583132539  1.0  
B  1  0.3357277205884709  0.4335439355102951  0.10463495831323665  1.0  
B  1  0.8357277205885124  0.06645606448971217  0.3953650416868766  1.0  
END
