%BLOCK LATTICE_CART
6.162237 0 0
0 6.162237 0
0 0 6.162237
#FIX
%ENDBLOCK LATTICE_CART
 
#VARVOL=234
 
%BLOCK POSITIONS_FRAC
B 0.0 0.0 0.0 # B1 % NUM=14
Fe 0.0 0.0 0.0 # Fe1 % NUM=6
%ENDBLOCK POSITIONS_FRAC
 
##SPECIES=B,Fe
##NATOM=3-9
##FOCUS=2
 
##SYMMOPS=2-4
##SGRANK=20
#NFORM=1
##ADJGEN=0-1
##SLACK=0.25
#OVERLAP=0.1
#MINSEP=1-3 AUTO
#COMPACT
##SYSTEM={Rhom,Tric,Mono,Cubi,Hexa,Orth,Tetra}
 
KPOINTS_MP_SPACING 0.07
 
SYMMETRY_GENERATE
SNAP_TO_SYMMETRY
 
%BLOCK SPECIES_POT
%ENDBLOCK SPECIES_POT
 
%BLOCK EXTERNAL_PRESSURE
0 0 0
0 0
0
%ENDBLOCK EXTERNAL_PRESSURE
