TITL Boron.vasp  9.997409394443482  83.03759764395097  -79.69327206781838 0 0 12 (R-3m)  n - 1
REM
REM
CELL 1.54180    4.961472    4.961472    4.961472    58.319553    58.319553    58.319553    
LATT -1
SFAC B  
B  1  0.010857020657034202  0.6536546825299104  0.010857020796675193  1.0  
B  1  0.010857020689185076  0.010857020689184904  0.653654682592094  1.0  
B  1  0.6536546825299103  0.010857020657034087  0.0108570207966753  1.0  
B  1  0.3463453174700891  0.9891429793429652  0.9891429792033242  1.0  
B  1  0.9891429793429652  0.34634531747008895  0.9891429792033242  1.0  
B  1  0.9891429793108143  0.9891429793108146  0.34634531740790553  1.0  
B  1  0.2230076699156718  0.6285401281874605  0.2230076699347961  1.0  
B  1  0.22300767001628066  0.2230076700162806  0.6285401279632797  1.0  
B  1  0.6285401281874602  0.22300766991567206  0.22300766993479626  1.0  
B  1  0.37145987181253937  0.7769923300843274  0.7769923300652032  1.0  
B  1  0.7769923300843276  0.3714598718125391  0.7769923300652034  1.0  
B  1  0.7769923299837188  0.7769923299837191  0.3714598720367197  1.0  
END
