"B6 Cr14"
1.0
       12.1738891602         0.0000000000         0.0000000000
        0.0000000000        15.4738492966         0.0000000000
        0.0000000000         0.0000000000        16.6238784790
    B   Cr
   96  224
Direct
     0.418076939         0.359566886         0.168130286
     0.418076939         0.359566886         0.418130286
     0.418076939         0.359566886         0.668130286
     0.418076939         0.359566886         0.918130286
     0.418076939         0.859566886         0.168130286
     0.418076939         0.859566886         0.418130286
     0.418076939         0.859566886         0.668130286
     0.418076939         0.859566886         0.918130286
     0.918076939         0.359566886         0.168130286
     0.918076939         0.359566886         0.418130286
     0.918076939         0.359566886         0.668130286
     0.918076939         0.359566886         0.918130286
     0.918076939         0.859566886         0.168130286
     0.918076939         0.859566886         0.418130286
     0.918076939         0.859566886         0.668130286
     0.918076939         0.859566886         0.918130286
     0.016741661         0.294745487         0.228804621
     0.016741661         0.294745487         0.478804621
     0.016741661         0.294745487         0.728804621
     0.016741661         0.294745487         0.978804621
     0.016741661         0.794745487         0.228804621
     0.016741661         0.794745487         0.478804621
     0.016741661         0.794745487         0.728804621
     0.016741661         0.794745487         0.978804621
     0.516741661         0.294745487         0.228804621
     0.516741661         0.294745487         0.478804621
     0.516741661         0.294745487         0.728804621
     0.516741661         0.294745487         0.978804621
     0.516741661         0.794745487         0.228804621
     0.516741661         0.794745487         0.478804621
     0.516741661         0.794745487         0.728804621
     0.516741661         0.794745487         0.978804621
     0.115535546         0.359705323         0.039778962
     0.115535546         0.359705323         0.289778962
     0.115535546         0.359705323         0.539778962
     0.115535546         0.359705323         0.789778962
     0.115535546         0.859705323         0.039778962
     0.115535546         0.859705323         0.289778962
     0.115535546         0.859705323         0.539778962
     0.115535546         0.859705323         0.789778962
     0.615535546         0.359705323         0.039778962
     0.615535546         0.359705323         0.289778962
     0.615535546         0.359705323         0.539778962
     0.615535546         0.359705323         0.789778962
     0.615535546         0.859705323         0.039778962
     0.615535546         0.859705323         0.289778962
     0.615535546         0.859705323         0.539778962
     0.615535546         0.859705323         0.789778962
     0.115127400         0.039826320         0.164164141
     0.115127400         0.039826320         0.414164141
     0.115127400         0.039826320         0.664164141
     0.115127400         0.039826320         0.914164141
     0.115127400         0.539826320         0.164164141
     0.115127400         0.539826320         0.414164141
     0.115127400         0.539826320         0.664164141
     0.115127400         0.539826320         0.914164141
     0.615127400         0.039826320         0.164164141
     0.615127400         0.039826320         0.414164141
     0.615127400         0.039826320         0.664164141
     0.615127400         0.039826320         0.914164141
     0.615127400         0.539826320         0.164164141
     0.615127400         0.539826320         0.414164141
     0.615127400         0.539826320         0.664164141
     0.615127400         0.539826320         0.914164141
     0.417850326         0.039526356         0.042437267
     0.417850326         0.039526356         0.292437267
     0.417850326         0.039526356         0.542437267
     0.417850326         0.039526356         0.792437267
     0.417850326         0.539526356         0.042437267
     0.417850326         0.539526356         0.292437267
     0.417850326         0.539526356         0.542437267
     0.417850326         0.539526356         0.792437267
     0.917850326         0.039526356         0.042437267
     0.917850326         0.039526356         0.292437267
     0.917850326         0.039526356         0.542437267
     0.917850326         0.039526356         0.792437267
     0.917850326         0.539526356         0.042437267
     0.917850326         0.539526356         0.292437267
     0.917850326         0.539526356         0.542437267
     0.917850326         0.539526356         0.792437267
     0.016595332         0.104473940         0.103436136
     0.016595332         0.104473940         0.353436136
     0.016595332         0.104473940         0.603436136
     0.016595332         0.104473940         0.853436136
     0.016595332         0.604473940         0.103436136
     0.016595332         0.604473940         0.353436136
     0.016595332         0.604473940         0.603436136
     0.016595332         0.604473940         0.853436136
     0.516595332         0.104473940         0.103436136
     0.516595332         0.104473940         0.353436136
     0.516595332         0.104473940         0.603436136
     0.516595332         0.104473940         0.853436136
     0.516595332         0.604473940         0.103436136
     0.516595332         0.604473940         0.353436136
     0.516595332         0.604473940         0.603436136
     0.516595332         0.604473940         0.853436136
     0.091688494         0.398197237         0.164060699
     0.091688494         0.398197237         0.414060699
     0.091688494         0.398197237         0.664060699
     0.091688494         0.398197237         0.914060699
     0.091688494         0.898197237         0.164060699
     0.091688494         0.898197237         0.414060699
     0.091688494         0.898197237         0.664060699
     0.091688494         0.898197237         0.914060699
     0.591688494         0.398197237         0.164060699
     0.591688494         0.398197237         0.414060699
     0.591688494         0.398197237         0.664060699
     0.591688494         0.398197237         0.914060699
     0.591688494         0.898197237         0.164060699
     0.591688494         0.898197237         0.414060699
     0.591688494         0.898197237         0.664060699
     0.591688494         0.898197237         0.914060699
     0.091629909         0.001179922         0.038593697
     0.091629909         0.001179922         0.288593697
     0.091629909         0.001179922         0.538593697
     0.091629909         0.001179922         0.788593697
     0.091629909         0.501179922         0.038593697
     0.091629909         0.501179922         0.288593697
     0.091629909         0.501179922         0.538593697
     0.091629909         0.501179922         0.788593697
     0.591629909         0.001179922         0.038593697
     0.591629909         0.001179922         0.288593697
     0.591629909         0.001179922         0.538593697
     0.591629909         0.001179922         0.788593697
     0.591629909         0.501179922         0.038593697
     0.591629909         0.501179922         0.288593697
     0.591629909         0.501179922         0.538593697
     0.591629909         0.501179922         0.788593697
     0.016447772         0.143863830         0.228548244
     0.016447772         0.143863830         0.478548244
     0.016447772         0.143863830         0.728548244
     0.016447772         0.143863830         0.978548244
     0.016447772         0.643863830         0.228548244
     0.016447772         0.643863830         0.478548244
     0.016447772         0.643863830         0.728548244
     0.016447772         0.643863830         0.978548244
     0.516447772         0.143863830         0.228548244
     0.516447772         0.143863830         0.478548244
     0.516447772         0.143863830         0.728548244
     0.516447772         0.143863830         0.978548244
     0.516447772         0.643863830         0.228548244
     0.516447772         0.643863830         0.478548244
     0.516447772         0.643863830         0.728548244
     0.516447772         0.643863830         0.978548244
     0.357176911         0.151149309         0.108134213
     0.357176911         0.151149309         0.358134213
     0.357176911         0.151149309         0.608134213
     0.357176911         0.151149309         0.858134213
     0.357176911         0.651149309         0.108134213
     0.357176911         0.651149309         0.358134213
     0.357176911         0.651149309         0.608134213
     0.357176911         0.651149309         0.858134213
     0.857176911         0.151149309         0.108134213
     0.857176911         0.151149309         0.358134213
     0.857176911         0.151149309         0.608134213
     0.857176911         0.151149309         0.858134213
     0.857176911         0.651149309         0.108134213
     0.857176911         0.651149309         0.358134213
     0.857176911         0.651149309         0.608134213
     0.857176911         0.651149309         0.858134213
     0.357147614         0.247930205         0.233720949
     0.357147614         0.247930205         0.483720949
     0.357147614         0.247930205         0.733720949
     0.357147614         0.247930205         0.983720949
     0.357147614         0.747930205         0.233720949
     0.357147614         0.747930205         0.483720949
     0.357147614         0.747930205         0.733720949
     0.357147614         0.747930205         0.983720949
     0.857147614         0.247930205         0.233720949
     0.857147614         0.247930205         0.483720949
     0.857147614         0.247930205         0.733720949
     0.857147614         0.247930205         0.983720949
     0.857147614         0.747930205         0.233720949
     0.857147614         0.747930205         0.483720949
     0.857147614         0.747930205         0.733720949
     0.857147614         0.747930205         0.983720949
     0.266814297         0.088514740         0.228219428
     0.266814297         0.088514740         0.478219428
     0.266814297         0.088514740         0.728219428
     0.266814297         0.088514740         0.978219428
     0.266814297         0.588514740         0.228219428
     0.266814297         0.588514740         0.478219428
     0.266814297         0.588514740         0.728219428
     0.266814297         0.588514740         0.978219428
     0.766814297         0.088514740         0.228219428
     0.766814297         0.088514740         0.478219428
     0.766814297         0.088514740         0.728219428
     0.766814297         0.088514740         0.978219428
     0.766814297         0.588514740         0.228219428
     0.766814297         0.588514740         0.478219428
     0.766814297         0.588514740         0.728219428
     0.766814297         0.588514740         0.978219428
     0.441804564         0.001077577         0.168146941
     0.441804564         0.001077577         0.418146941
     0.441804564         0.001077577         0.668146941
     0.441804564         0.001077577         0.918146941
     0.441804564         0.501077577         0.168146941
     0.441804564         0.501077577         0.418146941
     0.441804564         0.501077577         0.668146941
     0.441804564         0.501077577         0.918146941
     0.941804564         0.001077577         0.168146941
     0.941804564         0.001077577         0.418146941
     0.941804564         0.001077577         0.668146941
     0.941804564         0.001077577         0.918146941
     0.941804564         0.501077577         0.168146941
     0.941804564         0.501077577         0.418146941
     0.941804564         0.501077577         0.668146941
     0.941804564         0.501077577         0.918146941
     0.441557649         0.398040494         0.043735746
     0.441557649         0.398040494         0.293735746
     0.441557649         0.398040494         0.543735746
     0.441557649         0.398040494         0.793735746
     0.441557649         0.898040494         0.043735746
     0.441557649         0.898040494         0.293735746
     0.441557649         0.898040494         0.543735746
     0.441557649         0.898040494         0.793735746
     0.941557649         0.398040494         0.043735746
     0.941557649         0.398040494         0.293735746
     0.941557649         0.398040494         0.543735746
     0.941557649         0.398040494         0.793735746
     0.941557649         0.898040494         0.043735746
     0.941557649         0.898040494         0.293735746
     0.941557649         0.898040494         0.543735746
     0.941557649         0.898040494         0.793735746
     0.016702624         0.255359649         0.103861210
     0.016702624         0.255359649         0.353861210
     0.016702624         0.255359649         0.603861210
     0.016702624         0.255359649         0.853861210
     0.016702624         0.755359649         0.103861210
     0.016702624         0.755359649         0.353861210
     0.016702624         0.755359649         0.603861210
     0.016702624         0.755359649         0.853861210
     0.516702624         0.255359649         0.103861210
     0.516702624         0.255359649         0.353861210
     0.516702624         0.255359649         0.603861210
     0.516702624         0.255359649         0.853861210
     0.516702624         0.755359649         0.103861210
     0.516702624         0.755359649         0.353861210
     0.516702624         0.755359649         0.603861210
     0.516702624         0.755359649         0.853861210
     0.266513898         0.310850231         0.104069908
     0.266513898         0.310850231         0.354069908
     0.266513898         0.310850231         0.604069908
     0.266513898         0.310850231         0.854069908
     0.266513898         0.810850231         0.104069908
     0.266513898         0.810850231         0.354069908
     0.266513898         0.810850231         0.604069908
     0.266513898         0.810850231         0.854069908
     0.766513898         0.310850231         0.104069908
     0.766513898         0.310850231         0.354069908
     0.766513898         0.310850231         0.604069908
     0.766513898         0.310850231         0.854069908
     0.766513898         0.810850231         0.104069908
     0.766513898         0.810850231         0.354069908
     0.766513898         0.810850231         0.604069908
     0.766513898         0.810850231         0.854069908
     0.176052495         0.151290251         0.098600970
     0.176052495         0.151290251         0.348600970
     0.176052495         0.151290251         0.598600970
     0.176052495         0.151290251         0.848600970
     0.176052495         0.651290251         0.098600970
     0.176052495         0.651290251         0.348600970
     0.176052495         0.651290251         0.598600970
     0.176052495         0.651290251         0.848600970
     0.676052495         0.151290251         0.098600970
     0.676052495         0.151290251         0.348600970
     0.676052495         0.151290251         0.598600970
     0.676052495         0.151290251         0.848600970
     0.676052495         0.651290251         0.098600970
     0.676052495         0.651290251         0.348600970
     0.676052495         0.651290251         0.598600970
     0.676052495         0.651290251         0.848600970
     0.176229990         0.248067086         0.223986027
     0.176229990         0.248067086         0.473986027
     0.176229990         0.248067086         0.723986027
     0.176229990         0.248067086         0.973986027
     0.176229990         0.748067086         0.223986027
     0.176229990         0.748067086         0.473986027
     0.176229990         0.748067086         0.723986027
     0.176229990         0.748067086         0.973986027
     0.676229990         0.248067086         0.223986027
     0.676229990         0.248067086         0.473986027
     0.676229990         0.248067086         0.723986027
     0.676229990         0.248067086         0.973986027
     0.676229990         0.748067086         0.223986027
     0.676229990         0.748067086         0.473986027
     0.676229990         0.748067086         0.723986027
     0.676229990         0.748067086         0.973986027
     0.266388529         0.487786559         0.103475397
     0.266388529         0.487786559         0.353475397
     0.266388529         0.487786559         0.603475397
     0.266388529         0.487786559         0.853475397
     0.266388529         0.987786559         0.103475397
     0.266388529         0.987786559         0.353475397
     0.266388529         0.987786559         0.603475397
     0.266388529         0.987786559         0.853475397
     0.766388529         0.487786559         0.103475397
     0.766388529         0.487786559         0.353475397
     0.766388529         0.487786559         0.603475397
     0.766388529         0.487786559         0.853475397
     0.766388529         0.987786559         0.103475397
     0.766388529         0.987786559         0.353475397
     0.766388529         0.987786559         0.603475397
     0.766388529         0.987786559         0.853475397
     0.267058047         0.411613599         0.228895156
     0.267058047         0.411613599         0.478895156
     0.267058047         0.411613599         0.728895156
     0.267058047         0.411613599         0.978895156
     0.267058047         0.911613599         0.228895156
     0.267058047         0.911613599         0.478895156
     0.267058047         0.911613599         0.728895156
     0.267058047         0.911613599         0.978895156
     0.767058047         0.411613599         0.228895156
     0.767058047         0.411613599         0.478895156
     0.767058047         0.411613599         0.728895156
     0.767058047         0.411613599         0.978895156
     0.767058047         0.911613599         0.228895156
     0.767058047         0.911613599         0.478895156
     0.767058047         0.911613599         0.728895156
     0.767058047         0.911613599         0.978895156
