TITL FeB2.vasp  10.01350613881614  82.18997258639288  -117.18643179084393 0 0 12 (Pnma)  n - 1
REM
REM
CELL 1.54180    4.807828    4.76172    3.590096    90.0    90.0    90.0    
LATT -1
SFAC Fe  B  
Fe  1  0.5274119793947882  0.7499999999945285  0.3789563063466029  1.0  
Fe  1  0.027411979395030407  0.7500000000055116  0.12104369365279916  1.0  
Fe  1  0.4725880206052124  0.25000000000547085  0.6210436936533978  1.0  
Fe  1  0.97258802060497  0.24999999999448738  0.8789563063472015  1.0  
B  1  0.3347466154386085  0.06588330724883955  0.10434500701980018  1.0  
B  1  0.8347466154346094  0.434116692745024  0.3956549929815099  1.0  
B  1  0.6652533845653457  0.5658833072475893  0.8956549930073814  1.0  
B  1  0.16525338456487726  0.9341166927592802  0.6043450070021785  1.0  
B  1  0.6652533845613916  0.9341166927511599  0.8956549929802005  1.0  
B  1  0.1652533845653907  0.5658833072549753  0.6043450070184904  1.0  
B  1  0.3347466154346547  0.43411669275241  0.10434500699261956  1.0  
B  1  0.8347466154351232  0.06588330724071892  0.3956549929978221  1.0  
END
