TITL FeB4.vasp  9.998500164750205  68.64964144100178  -72.02371545951188 0 0 10 (Pnnm)  n - 1
REM
REM
CELL 1.54180    4.535662    5.262402    2.876164    90.0    90.0    90.0    
LATT -1
SFAC Fe  B  
Fe  1  0.5000000000000003  0.9999999999999999  2.7464077386426115e-16  1.0  
Fe  1  2.966943639583764e-16  0.5000000000000001  0.5000000000000009  1.0  
B  1  0.16419165177273143  0.87211596325133  0.4999999999998222  1.0  
B  1  0.8358083482272692  0.12788403674867002  0.500000000000179  1.0  
B  1  0.664191651773413  0.6278840367492615  2.4796301053330666e-13  1.0  
B  1  0.3358083482265874  0.372115963250738  0.9999999999997525  1.0  
B  1  0.757466349379785  0.8136057374970196  0.49999999999977063  1.0  
B  1  0.24253365062021595  0.18639426250298027  0.5000000000002301  1.0  
B  1  0.2574663493796059  0.6863942625038901  0.9999999999999891  1.0  
B  1  0.7425336506203949  0.3136057374961096  1.1374366185631797e-14  1.0  
END
