TITL FeB.vasp  -0.01917521646222122  62.26848069683109 -.89144107E+02 0 0 8 (Cmcm)  n - 1
REM
REM
CELL 1.54180    2.848355    7.521434    2.906522    90.0    90.0    90.0    
LATT -1
SFAC Fe  B  
Fe  1  0.4999999999999998  0.6453134778980617  0.7500000000000006  1.0  
Fe  1  0.9999999999999998  0.8546865221019386  0.2500000000000003  1.0  
Fe  1  0.9999999999999999  0.14531347789806154  0.7500000000000008  1.0  
Fe  1  0.4999999999999997  0.3546865221019386  0.2500000000000004  1.0  
B  1  0.4999999999999997  0.9308964236109449  0.7500000000000004  1.0  
B  1  0.9999999999999998  0.5691035763890555  0.2500000000000003  1.0  
B  1  0.9999999999999999  0.4308964236109447  0.7500000000000004  1.0  
B  1  0.4999999999999998  0.06910357638905536  0.25000000000000033  1.0  
END
