TITL FeB2.vasp  0.00742017832600056  83.98650486759283  -.11805136E+03 0 0 12 (Pnma)  n - 1
REM
REM
CELL 1.54180    3.64611    4.770917    4.828118    90.0    90.0    90.0    
LATT -1
SFAC Fe  B  
Fe  1  0.37591349670464586  0.7500000000000783  0.4801866435812541  1.0  
Fe  1  0.12408650329535956  0.7500000000000464  0.9801866435812654  1.0  
Fe  1  0.6240865032953515  0.24999999999992126  0.5198133564187463  1.0  
Fe  1  0.8759134967046378  0.24999999999995365  0.019813356418734336  1.0  
B  1  0.10153650871742095  0.06613977324212111  0.6632847311974567  1.0  
B  1  0.39846349128274966  0.43386022675759545  0.16328473119755332  1.0  
B  1  0.8984634912827434  0.5661397732424125  0.3367152688024598  1.0  
B  1  0.6015365087174868  0.9338602267578666  0.8367152688025398  1.0  
B  1  0.8984634912825766  0.9338602267578789  0.3367152688025435  1.0  
B  1  0.6015365087172478  0.5661397732424044  0.8367152688024468  1.0  
B  1  0.10153650871725371  0.4338602267575872  0.6632847311975401  1.0  
B  1  0.3984634912825101  0.0661397732421329  0.1632847311974605  1.0  
END
