TITL FeB4.vasp  0.00469404811599898  68.61765780356278  -.88511229E+02 0 0 10 (Pnnm)  n - 1
REM
REM
CELL 1.54180    2.840368    4.58037    5.27425    90.0    90.0    90.0    
LATT -1
SFAC Fe  B  
Fe  1  0.9999999999999996  0.49999999999999933  0.9999999999999999  1.0  
Fe  1  0.4999999999999995  0.9999999999999994  0.4999999999999998  1.0  
B  1  0.5000000000019306  0.1562362063509099  0.8745079403106011  1.0  
B  1  0.49999999999806777  0.8437637936490889  0.12549205968939856  1.0  
B  1  0.9999999999989698  0.6562362063540613  0.6254920596925249  1.0  
B  1  1.0294571153746395e-12  0.34376379364593734  0.3745079403074749  1.0  
B  1  0.49999999999886297  0.7561394201301799  0.8147976934128347  1.0  
B  1  0.5000000000011359  0.24386057986981882  0.18520230658716466  1.0  
B  1  0.999999999997087  0.2561394201288602  0.6852023065919074  1.0  
B  1  2.9120628836805517e-12  0.7438605798711385  0.31479769340809227  1.0  
END
