TITL FeB4.vasp  9.989369625236922  67.97083502805356  -88.29877466439507 0 0 10 (Pnnm)  n - 1
REM
REM
CELL 1.54180    4.438302    5.22027    2.93368    90.0    90.0    90.0    
LATT -1
SFAC Fe  B  
Fe  1  0.5000000000000003  1.381278908635887e-16  3.5400780076552937e-16  1.0  
Fe  1  3.262061293134115e-16  0.5000000000000002  0.5000000000000007  1.0  
B  1  0.15927087926720218  0.8746795348395905  0.5000000000000018  1.0  
B  1  0.8407291207327986  0.12532046516040962  0.4999999999999993  1.0  
B  1  0.65927087926725  0.6253204651604514  0.9999999999999996  1.0  
B  1  0.34072912073275047  0.37467953483954886  1.1255891693304184e-15  1.0  
B  1  0.7516586478950467  0.8119073335548057  0.5000000000000002  1.0  
B  1  0.2483413521049539  0.18809266644519432  0.5000000000000007  1.0  
B  1  0.2516586478950121  0.6880926664453492  0.9999999999999996  1.0  
B  1  0.7483413521049882  0.3119073335546509  1.4541280104425228e-15  1.0  
END
