POSCAR file written by OVITO Basic 3.10.6
1
14.4586768624 0.0 0.0
0.0 16.0469659896 0.0
0.0 0.0 18.5391089758
Fe B C N
54 224 262 0
Cartesian
6.1147784922 7.4129951929 1.0412473921
2.665333077 1.9195473337 8.6118410146
6.3466671651 4.6385502564 5.7191734248
7.0210572383 5.4915632283 2.1552403769
9.47045218 7.3831054453 4.6120346155
13.1265096382 2.8837728233 7.261723149
8.4287463868 0.683506413 5.0840177656
13.0301660209 5.9624351935 8.9366292251
9.797556346 6.5083511156 7.1296875655
10.5515763704 0.5883269748 8.0566406285
8.461256394 3.3034586949 2.2159627176
8.1007761289 1.0899075793 8.3925255419
11.9117767859 4.8787634632 5.6300053471
8.192190849 2.7060954662 6.5078589343
3.8599859593 8.1128741117 2.3930435811
6.2392373915 14.7309228788 5.3205654454
9.9074990004 12.8323044723 1.9476137576
8.5820210379 8.6229505453 1.9999742734
14.0141760605 15.2915679639 7.7056931678
10.7643815985 15.1217764335 2.4228984458
10.9697762777 13.5237139525 5.8388136754
7.9459987962 11.1096338191 1.1006455726
11.1834254411 11.4078055992 7.3519703198
12.88847078 8.4812777007 5.7085551283
11.2974171321 10.9127790302 3.0119345725
0.7500834896 3.7245475368 9.3145347598
6.7999539169 4.0020483635 18.1578185521
7.1889374735 4.8659117058 9.3506266066
6.7251355475 1.6099755693 13.495700631
2.2949301502 2.3782285016 10.9986487829
7.4478562335 5.1147656139 12.7200655964
13.9630031397 0.2716752089 10.1270152209
12.1183875778 7.4044757445 12.2580823476
8.8167101729 4.265641147 14.9617240079
14.1674011912 6.1286565942 12.2055115013
9.9382325666 6.0928240046 18.5239294184
9.2751274306 2.2790750964 18.374807907
12.9777234928 3.1748607306 14.5769004027
12.1123348672 3.5803469007 11.0217363215
9.3525556023 0.6144798888 10.4905533032
12.0797473344 3.7589719278 16.6870774943
3.8089854225 13.490966082 17.050195729
4.9153913346 9.1999854591 10.4326989256
4.7657411308 11.7296886297 18.3811576809
7.210026725 14.9201916985 15.8210969532
0.4228778202 11.6206413225 17.5090865203
9.1627789275 14.8184117149 14.3303782209
11.0459784687 11.6102470511 15.625397738
8.9046141331 11.4526048331 17.4809948695
13.8657624156 13.7544083448 10.104802017
13.2831545078 12.4072649437 14.7671486127
13.3956722665 15.4859248871 12.7756428272
11.090055599 8.1738672983 17.0400123755
14.1897539344 8.4742052978 9.3356385504
4.7237742225 5.8784682082 2.199362629
2.52833098 7.0451090161 3.7039532058
4.1423646222 4.9723214787 5.0819286024
5.0820203393 3.676137989 4.3502887116
5.5810047812 7.149560964 3.3767639353
5.0509976596 7.2721158953 7.7314297245
5.5213863921 6.5026907522 5.0205612915
6.097000147 0.39456359 3.8142693965
1.5326703485 7.3749956082 6.7279080462
0.8490507143 2.2642068558 6.9532074619
5.2737696649 5.435898617 8.7321945892
5.6597423081 0.7607967202 5.4070150162
0.9119377964 6.930435061 8.3669888653
2.536367369 4.3313960644 8.7657756305
5.9072142134 1.6744485388 8.7637462268
5.621769629 3.2846931694 1.4188096413
3.6561292933 3.4476030415 7.6877429742
6.4202058491 1.44024037 6.8744608401
6.6856209212 2.0250671847 0.9219674336
6.1167630243 5.7064451834 7.4432956663
3.1214086633 0.6986722505 7.1139702842
5.3501854787 4.1947756439 2.8013156826
7.0590044093 6.3168412101 4.0644998412
6.8173039677 4.1396244653 3.5152043708
5.0931584057 4.2360246453 7.1471666276
0.723532602 4.1558267312 7.1553060807
0.9549940327 5.4319179473 7.9272473188
11.7017418993 1.8238446396 5.0902968323
7.3466645601 3.134517366 8.5513412268
11.5461233029 1.7530538162 6.9276956727
8.5458732681 6.7496412094 1.3405236522
11.0529249127 2.0213002109 1.8131194789
12.0509421373 8.0165273041 9.1177783108
14.198505819 1.0460429928 6.9664573777
9.0846344985 5.3037946183 1.8657045201
8.4187571928 6.5213789978 2.9900109725
8.8801028747 2.0796438274 3.599863909
12.2033745142 6.4241563653 7.0871761989
12.2708180991 4.7637979312 7.699436243
11.2240188069 7.273808335 3.786108902
10.4454024416 2.9245569715 3.035198245
11.9329584268 3.2731858157 4.0662855793
12.7102683854 4.7070195716 3.957279874
8.2696313942 1.3483913825 1.5714771504
7.7442714185 4.4133413399 7.4359782389
8.2427044354 7.7631815806 6.7131904998
11.2633635714 6.6737335008 5.5771943031
8.8854748893 4.2643129429 0.3335246058
10.1353841742 1.6571338102 4.581386877
12.5982723301 6.4238381831 4.5384126555
12.8371407547 1.0680487876 8.0462216153
10.0534425466 1.6820639832 6.166561379
9.6781458013 3.1543057995 8.0827170989
9.6562673918 5.4194201888 5.145395159
8.6626762871 6.2117811314 9.1989318977
7.5328608044 0.7438200585 3.0035545292
13.1016455703 7.6743721905 7.8209261325
7.9518131209 6.3267703812 7.6567795361
13.9534017866 4.0025840539 3.1204038997
10.069611475 8.0196093284 0.4948440029
13.3009252649 4.060013986 8.9422763367
7.6471969458 5.8250667069 0.2370138638
8.3063027678 4.5286534915 5.7253161553
7.6324230846 3.161112499 4.5330943935
6.1560658288 15.8358540643 8.8169504103
6.4717953096 9.3849145277 1.4460078949
4.5893154528 15.7673865044 6.1401095533
4.884842066 13.8502600968 0.2682506758
6.4081775796 8.7537992642 2.9717080906
2.5702471751 9.322264826 3.2433337135
3.7130234982 15.1203468711 7.2211496779
5.099843697 9.5475936112 0.2589238441
4.320304101 14.3484089502 4.3553653406
5.261894891 15.1080989101 3.1294089526
0.6789071276 9.4966265081 2.8871698375
4.7180938526 11.2510437262 2.2515429899
0.7609371743 13.6422108091 8.6506288991
6.0566207413 10.4344455519 3.0192825849
5.3065638669 12.8393437876 4.8026239498
6.5474363154 9.5748074686 4.3827971924
0.1982895949 8.6863048585 7.0332766122
8.5143788624 11.2117854493 4.9416883983
9.2913743 9.4569695638 4.1691230907
9.5887293105 8.7016254846 6.9119667966
8.8749570856 10.6759082516 3.3972172144
11.7615060139 13.4055611823 8.1151896127
10.6243743286 9.4232608186 1.75562066
8.630862481 9.3023742035 0.2681339427
8.7696254128 14.509828506 5.6832294599
11.4684735235 13.8698906839 0.6429702363
9.2229750903 15.2849467164 8.704257533
7.2716631759 12.956376624 2.0703654762
7.665615791 14.3422955644 1.1019611206
11.8840426249 11.8612414998 4.6367518474
12.1087103937 13.0965826237 2.0425031699
7.5792039169 12.4077789152 7.5380745831
12.5894241787 10.6472933885 5.9417673417
13.2638709921 12.8253763672 8.5108450759
9.9053245648 13.9146796156 3.921633213
10.7974561845 9.6874975115 6.8732093268
10.4516987327 12.8955802327 9.0220720609
12.5099450871 15.4967472244 9.0856578156
11.8403384703 14.8886026273 7.5036231371
7.5116445808 13.8704703016 6.40437559
9.8183888699 11.0931467176 1.4612188431
8.9354071744 15.4567659242 3.5969964219
9.1966588094 13.3657885713 6.9512804447
8.9547824653 11.4803208923 6.5024908639
12.6612467349 10.2676602981 4.4177017695
10.8351137816 9.0127770938 3.5652579669
8.5338925114 13.8530711244 2.8752656046
14.4406415742 10.5404239759 4.1080277823
9.5400507455 15.6994310161 6.6306044624
7.7815498437 8.5219726318 3.8561240594
8.5760680901 13.5720756053 8.6001525735
10.33944217 12.2916845986 4.1183337953
13.1204139824 11.2020643757 1.7111982849
3.8335867016 7.8933029118 16.8074240167
0.9408023602 1.7018451698 9.6998378905
0.9029932413 4.3829946159 11.3352633847
2.514690249 0.3617316746 11.7927234306
1.4891033707 6.2463818094 11.2294372766
1.4278206521 7.081262355 13.1737520702
3.8647254761 3.5737972958 10.8756757948
6.4455008949 1.8777815161 17.5514048553
6.2941025235 5.0008263759 14.8421164071
5.5088211895 6.0138547107 13.4208730478
4.2984486871 2.154455117 10.0130429929
4.6905618742 3.8656765979 18.3878718486
6.4990134589 2.1974259127 11.5737590512
3.4452937215 0.5299044234 10.1877806049
0.8781360432 1.1559021061 11.5882712432
3.1977175391 6.5487819006 10.7036228213
5.3174206432 4.8068417955 12.0269033253
5.0952033436 3.0457382147 16.8234807717
0.7614969562 3.1024526151 14.049537814
6.8994104755 3.5256458617 14.2408844992
5.6474665216 5.5654481596 10.3825951641
6.41464524 6.1645570283 17.646618467
0.2983864796 4.2536482788 12.9285200322
11.8289198603 6.935186505 10.4147276933
8.538144857 0.0203121144 16.7044051642
9.7782988892 0.5379711083 17.598048253
7.4662051054 2.7171671036 10.1675117681
10.617422475 2.8509967065 15.4573277792
11.1269039129 0.0632123532 9.9441825278
12.8359085222 6.5403347673 13.953334455
13.508747261 2.2327434248 9.3582716648
9.3855246261 4.5573945447 13.0364131774
9.5488203717 5.896908254 16.3416376847
10.0402635971 7.1945050652 15.0395450475
13.7442536246 1.0934159362 12.0421647857
12.7108365446 4.2245600359 12.798524681
14.1632307927 1.4679532201 15.4202869943
12.7556231106 7.0685121271 16.6980799403
14.1870152916 4.2206759632 16.5058622559
7.511513307 5.1068539897 16.5109228896
10.2983492266 4.0722636699 18.1865259262
8.9079226768 2.5042440418 9.4953451215
10.564431073 2.0744595916 10.9638631986
13.7479979389 2.4642179567 16.6465307319
12.4344155559 5.623562023 11.1037665238
8.0190935505 0.4764041598 15.0936934162
10.9751801614 1.9701143232 16.8273344994
11.4312103378 1.8020674736 14.0261869712
10.7922375651 4.6391002607 15.691029236
10.0840854771 3.9542224514 11.3591580252
7.8973911736 1.6919745738 16.6852460684
8.305826855 6.8210120769 12.3216394297
8.1240332315 6.7351571775 17.3537528872
12.3254295266 1.6639373934 10.4616987612
13.7301191431 4.7543840896 10.5101985221
13.3552808447 2.6866335562 12.572176609
8.4280868004 4.6473757569 10.9835187193
8.3587569529 3.4430060998 16.9518596945
11.9794961183 4.9717902683 14.2580783488
0.1717563759 11.7280313857 10.1381586833
0.9788513062 12.1466235963 14.2433352095
3.8069050957 9.2638955168 14.0663942536
1.3060480519 8.768722989 11.9860533548
0.8875151151 15.3346929869 11.1412658479
1.5773268135 13.7669228768 13.6376016873
0.4230901413 14.2961633141 12.2845920478
4.4226113609 8.9608252784 15.6894584088
5.7346039758 13.7493439498 17.4029781463
2.4773036566 11.6379076908 17.4488011064
0.3334892997 10.4154665329 16.0800112632
1.6472255537 11.4058506167 15.5479420316
0.3221653983 9.0501718107 15.1146850268
2.9113794478 8.1818409284 13.1205630542
0.0373147881 9.6697410673 12.8330398214
5.7795954966 11.6304591479 16.5123788024
1.8525369397 10.1949441494 18.5034610487
1.1545570724 15.2129256515 9.2975585617
6.933903617 11.9612975046 17.9021250415
13.0724241827 10.6623834539 15.7305536551
11.1774511782 10.083999547 10.6862757935
12.6747183408 13.6423168274 16.2595651095
13.9518267285 8.309720626 12.0036496301
10.081512285 13.0096112223 18.5234915515
12.4221752243 9.9053114739 9.5712470073
10.7346395387 8.751820572 11.8418410957
7.9123618175 9.2131335271 15.7663233807
10.1336551387 13.7030609264 12.8068996204
8.5855522815 13.0504800378 15.35021157
7.6969489422 13.0752679254 16.9565881271
11.6672352726 13.634184414 14.9542636732
10.6029331975 8.7076329129 14.9795647399
11.4881733068 9.1787692693 13.3857550144
11.0028555204 11.4792027183 18.0017768158
8.9756505097 9.376998612 17.1530862011
7.383763772 13.6911499121 13.9536135938
11.9820200031 10.3806011505 14.2609890697
10.4312016471 10.3588418922 16.8510668798
13.5512614229 9.8714128975 17.1558702094
7.7436523226 15.4405678642 9.6182843617
14.4202783284 11.2983768403 13.0827787114
11.3087933184 10.916020234 12.5033885076
12.0059460285 10.0641684042 16.6039752107
13.0265413197 11.8821056462 12.70886161
14.0284618788 14.5788673006 15.7620651592
11.6466768898 13.4940107602 10.2133002981
12.2454630539 15.0278751626 10.8441449077
12.6085371141 11.2986773589 18.284319392
2.2435297647 5.8235947859 0.4473755949
4.0501874373 6.5034019885 4.0490720679
3.9436789273 6.316361633 0.8826910488
1.5351973048 4.6351710256 1.363105012
2.4189936787 2.9578465066 1.5151540805
1.9389256701 2.2513425589 3.2200269405
0.9867679843 4.995459716 2.9001269315
2.4122533978 7.4296084642 0.6847795927
2.3368134819 4.0335109246 2.8034407798
5.1180719891 1.3960326541 1.3743723932
1.3440361717 6.7584629304 4.941714336
3.0610479382 0.9016846214 3.4618501407
1.4603465874 5.3506567668 6.0482623782
4.5462926078 0.7185963921 2.7217978332
3.8566202511 4.753751064 3.3666692876
1.0560275987 0.6953584735 8.2246154435
4.0572021229 2.6747558596 1.0831295978
0.6518976375 6.439117859 3.4153533529
1.2193198478 3.559755175 4.0183769325
0.965110356 1.8883768039 1.7787043641
0.9054481966 3.3103074985 0.6122146207
3.3557827112 7.7931049855 6.9290471168
1.5620036663 7.9401247839 2.278923347
4.6555512876 1.870400105 4.1952135761
4.8139014574 7.7605115476 5.9574970964
4.0625633651 0.9819979488 0.1651513621
3.129625281 4.2791453437 6.0648162145
1.2416674231 3.4677269991 5.7056840134
4.7468302717 2.223139607 7.8680069261
1.2603425014 0.1775335628 1.1197279769
3.1345274624 1.201645953 5.4370290587
2.59901541 2.4662462006 6.4710154857
0.2327196512 2.3011296758 3.1890753557
13.3313554918 5.689912469 0.6432648634
14.347031027 4.5620674674 1.4545811328
13.1135059541 7.5824467502 1.1182287306
10.3011016921 4.8968117717 8.2397478141
12.4325928869 0.3820245743 4.8286297004
11.8175593299 0.6001064097 1.6353116148
12.7492713871 0.1861774697 0.3077724059
12.7236827009 1.9238114166 1.2121037133
9.79332068 4.2764240781 6.5553806487
14.2121648598 7.3141932214 4.3387558086
14.0929248853 2.8663445396 1.747455091
11.4240288884 6.6681191287 1.1892346863
11.8918767098 6.0685373296 2.7931258309
9.803807646 5.58624807 3.39626179
14.0303861933 0.7411586173 4.1779243204
12.6053730303 0.04650745 3.1015708707
11.0170151611 4.4657077782 3.6240280224
11.1141382672 3.4038666016 7.3688468161
9.9160422333 0.6180865171 1.0033863787
2.7188188621 15.7960821226 0.2059208088
3.9955999872 8.2333097199 0.1442644257
2.560247892 15.65181733 8.5440824879
2.4689016278 15.7308324571 4.455857035
5.9042908002 8.5099389723 8.6614716638
6.4350717546 8.1220630704 6.9439026775
0.590843432 8.225995171 5.3931632499
3.1261169997 14.1919986118 0.234218586
5.9533809743 10.8216438768 0.8837500645
4.0158690417 8.3771387963 8.574533087
3.9862423495 9.4502497788 5.8303994915
3.5336298721 13.1342623624 5.0885610785
5.6892952025 9.3494901701 5.97530467
1.3718470626 9.4903992764 4.5670873366
1.7897593983 13.4477856862 1.3284471765
1.9357852869 10.8390961514 7.9071721186
3.0873801636 13.4294914276 6.8675422364
6.2797906491 9.977484341 7.5527330485
4.7725370532 9.9487523399 8.5167106296
5.6677903136 14.8823663863 7.4132793607
2.4770224883 15.1131825115 1.7439295651
3.0945433339 10.9530836099 2.8296820674
0.5690985897 12.1959248738 3.8634170376
6.0079089854 13.3112365516 6.7194912932
4.6465610608 13.3289514544 7.7589327588
0.5550399086 14.6941255577 1.71808947
2.8398687681 14.4136802823 5.6093272008
4.7714344444 10.5754741225 6.7164069464
1.2561319524 11.2031674431 5.1301196605
4.4584979942 12.1853196047 6.6744182541
3.1775946463 9.8126908453 7.4542514065
3.5522209044 15.4371847778 3.0221928232
1.7912543405 12.717906339 7.5097156365
5.9624753968 14.2619730509 1.7700180407
1.8214806599 12.1929245761 2.5113223619
2.5123132468 12.1799725309 4.1840656481
2.9388559856 10.3771831969 4.6205022194
0.8770403863 11.4553330709 6.6714258863
1.6547499458 10.6459303832 1.6630185237
0.7806915269 15.3920325599 4.4529981511
5.4063514749 12.8458712278 1.5425355744
0.1789610453 11.2103588629 2.4746446392
5.9251074874 12.0541932418 3.4438078122
0.2026158444 13.6877958255 0.3112720298
0.1693789866 10.166541718 7.9516994381
0.2226044344 13.0302713354 6.9920604646
13.5668673495 11.288828392 7.2882540449
8.3844994255 12.8605705811 0.0514067339
11.7180830417 8.5569457852 0.5643057594
11.2438286658 8.0575695647 7.3939742477
10.9856009543 15.6278039469 0.4796049892
14.2318209094 8.085133446 2.4065107955
14.0222360373 15.9501290503 5.6210656504
9.4589863643 10.2307864103 7.9930078192
13.6058160816 8.8885171113 3.7017155971
13.5527988231 11.0450028115 9.0435555517
14.286870371 13.701864009 4.1548875125
7.434392664 11.3525150544 3.7687407091
8.7362098002 15.5937294027 1.9100084697
7.583432078 12.0002838191 9.2489168778
11.7662133583 14.8574274579 4.356868629
14.2173928097 15.4098105701 0.0947592804
14.2069531138 14.0079167987 5.6924760318
12.5462060838 14.9950931263 5.9203616897
7.8605684324 10.6627161874 8.0644828582
11.5437240492 10.6014269578 0.9971132063
12.7281210663 13.4079960744 4.8099192
12.9115855905 14.0927069688 3.1853128087
14.2438266146 15.1718359011 2.9267995787
13.2285918368 12.838314757 0.582233727
6.0726733956 0.3996023021 14.9434400331
6.6121785151 3.9772357103 11.0766351913
5.8364218371 0.5909016039 18.4529973413
3.4787738737 0.1677696355 13.1255725144
2.4520654759 4.5614142556 10.4650856702
1.2062986106 0.1043820217 17.7435362302
6.3157221145 0.3440680642 11.585558355
1.7822800567 7.078372824 9.8149060036
3.9546229203 5.0617214542 9.8872120822
1.1670162706 7.4490505564 15.2692066643
3.8454980608 7.7943305876 11.7851372182
0.5915689283 4.5705498882 14.9712128529
1.465086497 7.0034356948 18.0704905746
4.4736717108 0.5714023801 15.8897098776
2.8786188834 0.5531742712 14.7342058273
4.9493292513 2.6847258344 13.8553717675
2.1285359208 7.1642967624 16.5523374394
5.1710981011 0.6387292035 10.1051212757
3.791105201 6.2140179672 16.4828875253
3.6860448257 5.3794090585 17.9380194681
2.2378037812 2.7866763524 16.4993045393
2.9287365543 6.5707075662 12.5021080138
3.6060991006 2.8330325704 17.7850882709
4.047366887 5.2976321798 13.180822027
2.1304402216 3.4619128594 15.0231987918
4.7244638798 1.0628973056 14.1389440975
2.238571784 5.6549806583 17.0900367162
1.4615243795 1.4771475903 15.0528841502
1.495513559 4.2264597897 16.4161744017
4.836320957 1.2925532613 17.2591173143
3.68794995 3.7077791342 14.3141237352
1.150302236 1.3892723445 16.648747847
0.8321159067 2.9952280379 17.5225135642
4.03629011 3.6223402145 12.5299234902
4.5387110219 5.5172652505 14.9975066153
5.0325693146 3.8675270297 15.3090515477
6.6722757415 7.40512761 12.9820154876
4.7733626441 6.8215046301 17.771858134
0.2492919554 6.1554311607 14.2204473396
6.0503580696 3.4171129864 12.7152179677
0.7176937867 2.6194042712 12.3499959412
0.500685605 7.5999940835 11.1188284288
6.7594311826 6.6489477368 11.1974208279
8.7848625682 1.1137466746 13.4804015344
13.0689092961 1.3652376233 13.711445903
11.6057982337 5.0415219734 18.3689552623
8.9557500752 7.7038861745 16.4863950511
12.6586040397 1.6224150984 17.6623368356
7.8782230873 2.2878568258 14.9993298072
9.7656720359 2.6366067537 13.7356187925
11.45977565 2.7544938681 18.3993570377
10.1032971415 5.6159740574 14.5042136679
11.6538719266 0.2225468006 17.2317993914
11.8327139755 0.1621315185 14.0173433713
7.9254761458 1.1717467989 11.853877748
8.1887114179 7.4185041685 10.3292077661
9.5211603854 4.4067745433 9.6884284107
13.7798712116 7.5194121918 15.1817633781
11.5074345193 5.6694626736 17.0069342423
10.3327266632 1.3437464559 12.6831330989
10.9832053738 4.7377421316 12.5330662653
14.0815579783 6.9468962056 18.2246675685
13.3279733787 5.5644751969 17.296013983
6.7287302922 9.859932188 11.4007824389
5.625385601 9.544837481 14.2278773991
6.3355886593 9.6977363716 15.9694945443
5.9387687749 12.6252449636 11.9121527268
1.4920214778 12.4823869825 12.5483346729
5.8809945333 14.4228330867 14.2831691858
4.5025661692 14.6209411074 13.1855224216
4.7323997327 11.7455832347 12.3849084786
5.5865433658 11.0747786781 11.2221109584
2.9883470837 14.695308287 14.0113001133
4.4607391822 13.8973386762 14.8690941681
4.5969094086 12.1721840719 15.2261133418
3.3493504387 15.181384053 15.6674592258
4.3516519574 13.2702032713 12.1334856413
4.5166797877 11.0267461666 13.9545492569
6.3781703031 15.0626147715 10.3301640709
2.9713976221 12.3321271466 11.6558956882
5.1881400461 13.8244792135 10.8695530746
3.4921631117 13.5852292724 10.5715474665
2.7864722102 15.0715297399 10.2553996201
3.8432932834 10.7549008451 11.2385611133
5.1204578659 14.7399606977 16.0324411809
2.3644722952 14.7242837362 17.2182963553
3.3261495771 11.9487246008 10.0165023261
3.0511272496 10.6446174499 14.7595138122
6.0294678506 12.2335784939 10.0857422436
1.7582907041 13.2502513956 18.060057204
4.7242826486 11.1580990027 9.6285408755
2.8796342414 9.2313400162 11.3104147472
0.6491695428 14.5962201078 17.1415499317
1.5389025282 8.8350452165 10.2218149266
6.7229598332 9.1316467572 12.9315967028
2.3660290603 8.367769835 17.8172476068
1.2472661044 8.6054558671 13.8230383349
4.9589487865 9.9241867783 17.0668108521
3.8288673592 11.0000530309 16.6774747048
6.7130359578 8.2251482751 10.1909074645
6.1129908143 11.2397062099 14.6812359852
5.5166219094 15.9910890234 13.0879346721
3.1028257111 8.147741453 10.1430023411
4.7235017167 13.024083839 9.3404526899
1.9364999831 11.7510347555 9.4189073802
6.3017525456 15.1637748673 18.5325598156
5.8359450958 8.3054039649 11.8144074468
0.9592523722 10.2760521724 9.461976897
14.2539367006 12.3977746908 11.720161223
9.1450067718 8.408028686 11.674267849
8.9507643622 12.657237481 11.6265355562
9.0866772919 12.4387598555 9.9532834761
11.7516619953 12.8817067548 17.6425447424
9.3501217504 15.8394438976 12.4909631112
13.5817366834 15.7506484676 14.9068734655
14.3151673121 14.1989096256 13.8694029835
8.2024335979 8.2049164715 13.2024399413
7.7774709551 14.7838968196 17.6439060218
12.3527673985 12.6803865297 11.4248372149
12.6249371538 13.5225909025 13.3555567319
9.1179880462 11.3760216024 14.5171020923
8.6260903653 10.5821179217 9.5044057484
10.5236080207 10.8584397439 9.4472630751
13.0271464663 8.4882474085 17.80977733
10.1230175171 12.9840206078 14.4551621256
8.7734719534 8.2585442456 14.7184643471
7.5505982895 11.9678920222 14.0356302315
13.1137366399 8.287788461 13.7952163825
9.4899606773 9.9621869563 15.4004394086
8.3862748984 9.7893896743 12.3157835251
8.4857397068 11.3523848201 12.8084642042
8.4743729899 14.2114608357 12.4306025571
9.9916215159 11.8886002193 12.8725797341
11.2027195423 14.6708406648 13.7304582257
7.4550508504 12.8281548527 12.4488085443
12.1725660565 15.3172621145 16.0102603644
11.5685361451 14.0506257033 12.0495127691
12.3807413871 8.8332380557 10.8029735442
8.2094311676 9.1415547045 10.6762073507
7.9403861345 15.4709661068 11.2595072007
