POSCAR file written by OVITO Basic 3.10.6
1
14.1159816727 0.0 0.0
0.0 15.666625651 0.0
0.0 0.0 18.0997006172
Fe B C N
54 312 174 0
Cartesian
3.9431627672 4.2117596985 8.3202641776
1.0320546109 2.9021942011 2.6982549488
3.5870284095 1.3575444756 2.0910383645
2.9928137863 6.530746656 4.7054523555
3.0219704319 0.5719429286 7.8977740288
5.0044713863 7.8164057124 2.9405374221
9.0087584854 2.0228114185 3.076711951
9.6678602604 0.8845897684 7.2459738013
11.7880060463 4.2522576077 6.2811325528
11.8377493289 4.7806887091 2.5043881998
9.390548623 3.6085832886 6.6095342241
12.9226756743 7.1084658667 2.5257765337
3.0443801592 9.1182092639 0.7071003616
3.2473691431 13.3298092422 0.6278152339
5.1365072158 9.1966289693 6.6750093008
5.0363488667 12.4461105903 7.9589981613
3.0841883992 13.1078386698 3.8629471171
5.8869449867 13.6221933546 3.7363597564
12.8392288401 15.1498952595 0.3398677614
10.3506303897 11.28842316 7.5058470766
10.963117013 13.287055808 3.6299818907
7.6224333935 11.2596929102 5.1071402622
9.2759582337 13.3214912452 7.8517417025
7.5815337334 13.7537952381 2.1286129266
6.8402325781 0.1152996397 15.5824120728
3.6531878947 1.0873925206 15.5097702928
3.9025654591 2.2331886116 9.6783303236
4.9094077621 1.6141336779 17.8489692784
1.5216611714 5.8015178655 17.7513965522
3.674118207 0.4273506847 12.7392989052
4.6981616546 4.6215270334 16.6918355354
0.8484773135 4.5015556877 11.9570886385
3.0262682183 4.3012744292 10.6132645248
0.4459693484 0.0123353967 14.0199577309
9.5638891914 2.2302004543 10.4658716612
10.7449692207 0.606864143 16.0499599632
7.7966590628 2.8512783581 15.3773924969
11.1349097701 2.0075977777 18.019777382
11.2203076086 4.0853107907 10.7418622474
2.8953041406 12.1022065165 12.3011476862
4.9672629077 10.483992588 16.4940352981
1.932723761 12.6943734371 15.6717492399
5.9767156238 14.2494984239 9.6768169565
6.3751583201 10.9954790311 11.4041766345
0.9699970928 9.0990666735 13.9825981407
3.2238431444 7.9640668894 11.0593866142
13.080485317 10.5000963832 17.4231767364
7.2970028304 8.1049306356 9.6572575284
8.0191700463 7.8463217375 16.8024912581
10.8851958125 15.5972356499 10.8788587543
10.0757552513 14.1149178956 16.4826356438
9.3144077509 8.959589502 12.5478313695
11.9607814513 9.5871305199 11.38788852
10.2350664008 8.0211578161 16.2126978442
3.2022026834 3.2280222481 1.9209791933
4.9770482527 5.7361047425 3.4757144165
3.5072058849 3.2196169504 5.6956164821
4.2962137605 6.1991580698 7.1716449261
3.0079997034 2.9754717065 3.382942161
4.132729832 4.9519426073 4.9773587768
0.8439454846 2.6856566106 5.9063689045
6.3483162941 6.536650724 4.8072261375
3.5262606437 5.1433678118 6.398981221
1.4595794576 3.4374605884 4.4949378208
1.192914782 5.0147883597 1.700984457
1.6405445238 0.7460888175 3.092972741
5.5290230457 0.9146652314 2.3287820726
1.8264861617 2.3167833397 7.3588515257
4.4206158014 5.8756971121 2.0504157306
6.1642775166 2.5283406408 6.8872012512
3.8017464056 7.5851276422 6.4102760784
6.5963384805 0.8215996388 0.0837795218
6.1973379578 5.8476183408 2.1127153828
4.8080312339 2.1340604589 5.9040398789
3.5566151564 7.3894826381 1.519531525
6.9159602301 0.2318846317 4.5589488462
1.4926754529 5.1796928393 7.2119087667
0.8536862477 1.2919422062 4.6800543474
4.7640118602 1.8037231303 7.6789074915
1.3964265973 1.1205522521 6.0192192076
1.3601718378 5.0425156306 4.0900483586
3.4120969536 0.1422488214 5.3275823073
2.4470819473 3.2475740658 8.5602259198
0.9550944385 2.2917937982 8.9817672501
3.0936225281 0.9725919019 0.0688897179
5.2840635115 5.7410525497 0.2331955566
4.9718968683 3.5139943991 0.1182956964
13.7420969446 5.3563514243 4.0791041086
7.770945752 1.5010878233 4.659166985
7.2235411002 3.5115111164 7.4727037744
7.4158805336 6.9427484656 1.7300575783
13.4887873873 1.7221950537 2.1985720439
7.4525117585 5.343362523 7.5752896575
8.1234399687 4.2051631503 8.9766834974
13.4242273604 3.2941401813 6.4664513931
12.9316145781 0.4090065038 7.492027002
13.9097326143 5.0826327869 6.9532560243
8.4616744783 0.1101237095 5.7963580032
12.1380816253 6.4003460667 1.0098110145
9.0006505484 5.9781721527 7.8097979634
12.3673148732 2.1700117134 6.213108139
10.975922921 4.5931189329 4.1265182395
8.1002304747 0.0312357233 2.5943316613
10.635229829 1.2767035524 4.0533981281
10.3410606766 5.4134318746 5.3991706621
12.6652620321 4.3015390862 4.2425399163
12.7281648915 3.1907699961 8.0536681638
10.5767973724 2.1309059258 5.8351649525
11.6932866109 0.4845155642 1.8336774044
10.5638887423 5.5228475932 6.987888485
11.7211800379 6.6546576513 6.1469167824
7.742522598 7.1470918277 4.1335628375
7.731479902 4.6962873202 5.9746193909
9.3683841037 6.5720994567 4.7021878607
11.9826139481 3.8121718238 0.7055916123
8.3701956235 5.9749071492 3.1412669935
8.026886519 4.2046251474 2.9124124572
10.852970361 5.346795098 0.7106300617
12.9385594744 5.8254675693 8.1680222342
10.1861495321 1.7453820795 8.7578223676
10.5818455542 3.2306584805 3.1021992512
7.7683370106 3.4530092838 1.3188097842
11.7213221605 1.6513587213 7.9177531506
13.1865288018 5.7639461486 5.6208752575
8.7096240551 0.9711671783 8.8969005378
13.2692344647 0.7175025436 4.1126894534
9.1647769262 7.2456306819 1.6801744458
9.0418811711 1.9994857834 0.6875453372
13.5642265041 5.4036028598 1.4924793571
8.7918856199 3.4943494525 0.0525475203
12.6084238045 7.7862323897 7.5479901911
13.5439550047 1.1266083017 5.6061791985
10.7321286626 7.6004358784 5.0173458283
10.0773115535 0.3272090365 2.5110813075
6.5434736348 15.3101199349 3.003052665
3.1326412899 15.5352587665 3.5629042832
4.6145635998 7.9229616666 5.0599162291
2.413311984 7.8949887744 6.0049583541
6.2346003682 15.3200228043 7.4353676613
4.1792882106 9.2848572432 8.4732126078
0.3277706433 11.87185478 0.3659695611
3.7914977833 14.9771595824 2.0906897485
1.042608701 9.8942980772 8.4839801296
3.9193725057 11.1235517261 6.1705006521
0.9615634691 13.9062140312 6.2562436604
4.137798225 13.5180678586 2.3831712833
3.0514023069 11.0885320613 1.0904652331
1.3345458612 14.2372897207 1.026810781
1.34372167 10.808769769 1.5018351298
2.970797666 10.1078171383 4.4133621872
0.0952732474 8.6901445689 7.444886705
5.8483923049 10.7388678224 8.407707509
1.8203841371 11.2153118247 8.0271733353
2.525261316 13.3380233551 5.954258309
5.536903409 10.9329669657 1.8813612187
4.4337453108 13.3054927572 5.185469853
3.3474586243 13.7553659608 7.4532630154
4.9915934275 9.301300002 4.3293345222
0.9489671326 12.0062471935 6.5476841211
2.6007444038 8.0599369217 2.8375938637
5.7350559829 14.5730200176 1.4082513569
5.9125249702 12.7279184677 5.8825653338
4.8629325214 8.4272139791 0.9034538134
4.5530194301 14.8518357365 7.7589413588
6.2203079394 13.1919273251 0.2864663373
2.4191588741 8.6434046239 4.3489952475
6.2294484143 10.4418171574 3.7662214215
0.1207539365 13.0747337514 1.6241269205
6.7733742688 9.8427134959 1.1036506793
6.306196549 8.2912657569 1.7268302443
6.5494065735 8.1638424779 7.4032783965
5.6432522457 11.2569749569 6.226696998
6.6228917369 11.822413114 3.0878183859
9.2532435947 14.5803804668 0.0196141599
10.9822084223 9.2839569547 0.6583990855
8.6803497599 7.8921962048 5.4084815989
13.682089088 8.1330660588 4.1991496004
10.8050216821 14.4520112666 8.9114695025
13.6025313175 11.1067676725 8.9352244363
9.3385367941 10.0836577106 0.2574653528
10.7573896294 14.703438725 7.0398380344
12.1501458254 14.7427283673 8.0664687585
10.4785708196 11.4213787998 3.4322674686
9.3348798479 14.5462527893 2.8753689408
13.6454408683 12.2847519898 5.8299942841
13.9667838968 11.8701514272 4.1372818787
13.9282560855 13.7609683078 4.681784021
12.6824690794 14.6861919967 4.0401311907
8.3396427607 8.5036538308 6.8802698955
7.4184834548 14.7861843587 0.4704673002
7.2136050831 12.7413847503 8.3891831149
12.2111476571 8.2482477794 1.0859837092
11.8149995212 8.4053319111 3.781242079
10.4852406904 9.2565123322 5.2153641644
13.2747812119 13.3809676343 8.8287878784
11.9409645309 7.9003810236 9.031264038
7.5087802502 13.1908151551 5.6608936096
13.1919514942 13.5562189065 3.1563510942
7.8266224344 8.6155219752 2.2350290487
7.4394583533 14.8088314587 6.2575977892
9.9412140118 9.4180421329 7.5966703576
10.4386398027 13.1801709585 6.2005356536
9.0276320053 12.3382802182 6.0985937108
11.320054146 14.78979479 5.1979800199
11.5991471414 10.049409766 3.2017847387
9.4270833082 8.9029732492 1.541261555
11.7104897302 10.7099699413 5.3929554373
7.800039311 13.0425848506 3.9554907232
12.8457202443 9.8852843689 4.2138532372
6.8571259973 3.0438526219 9.4292067949
3.1447864631 0.1794884547 9.6428164437
1.7938929464 7.4673938981 12.8164063362
2.4804886135 7.658111151 17.3427601882
6.0388760846 1.4179059972 10.1765443524
2.7298046209 6.5148728921 10.002332099
5.124793342 6.6713537407 17.0801750872
0.2062247239 1.8844806481 15.274093656
6.838432359 2.0730032811 16.8499122733
4.9903328782 6.9065546272 11.9257629155
0.2292007262 2.5192295462 12.7915042953
3.2851160451 3.6852265452 14.618805
5.3260132626 3.9997985024 9.8603229461
5.6565581195 1.3611870499 14.3972231013
3.2897806887 5.4891495352 17.9138265303
6.3589200799 5.9101204091 14.8806836137
4.948290845 1.4725632359 11.474286239
4.7879012124 6.2886725577 13.4950054608
4.5032956789 0.0863925091 10.7595199981
2.3194595787 0.6219041693 14.1277819728
2.9928282249 2.5942568015 11.5016467044
2.9425083604 2.4236644361 17.271396613
2.01223712 6.5479571329 16.0709148892
3.0879438294 3.9262750987 12.5527892832
4.4092553247 6.0162124525 10.7168047566
1.7200726464 6.5189017662 11.3125564301
6.0862329831 3.2859425343 16.0469335895
3.2555995713 6.9521306189 14.2817144517
5.7579724317 2.3101906642 12.6026549331
1.7629426255 2.3398322755 14.5055629506
2.3959661438 3.3119470985 15.9602167527
1.5615902911 1.0955835804 12.1708138881
0.0107652292 7.1245025664 10.9728652309
2.8600397003 4.9469511734 16.363960823
6.8463851427 4.6004200216 10.2260646639
0.5153183349 6.1431432261 15.7563781738
10.6958768533 7.4935057913 11.7468240526
13.1871145374 7.5348883375 15.539882419
11.0963745421 1.7405769002 11.6140381766
11.4485439351 1.330647285 9.7974856847
8.7684257362 6.7587788032 9.1768006285
12.8209886014 2.0775742034 12.1591672505
11.0308000583 3.2243285979 16.2588791102
9.7208518102 3.559706781 9.11659722
13.021003866 2.2333718971 14.0569504809
9.308565598 5.2320212982 17.9970510425
12.4179801056 4.8191275511 9.2442841142
12.9691953744 1.6182970385 9.2965974567
12.7216556874 1.1834641993 16.5624614216
8.5597588686 1.0691534269 15.8854504317
13.1738193726 5.8487555574 11.4487752531
7.5818242355 6.9142375157 15.2532272638
8.5545456213 5.9815024166 16.6297021681
10.5387919285 4.8143304855 15.6523932469
9.9559182231 3.913142473 13.6460956594
8.8962824232 0.7146701738 12.911249654
8.6607089188 7.7704563468 14.5877668536
7.613606228 1.511225 10.2524751657
10.4131686677 1.0113518653 13.5703497947
8.0686856115 5.1143041393 14.9955302303
12.1798053169 4.3276436708 15.8393680656
11.5499188296 7.6675477086 14.7091672672
7.1792396787 3.0364754953 13.3231734133
11.0505505705 2.6136874507 14.160860652
8.9646589992 4.2821860224 16.4266316842
10.6231608322 7.492348696 10.1191734788
9.4892103235 6.3994914701 12.5931085143
12.8978117951 0.9097999005 14.9523002436
9.7561168852 2.2072694612 12.4960181273
9.2713385011 5.9847633567 10.8923528136
13.4132356968 3.2519180869 11.1204742963
10.1731007022 5.4346005152 14.0112341666
8.0631344587 1.6634099247 11.8502755889
9.7391551389 2.8155549874 15.1560254473
12.6493612385 4.533655365 12.1008267112
2.7282747613 7.9162520381 9.1600558286
1.0849606954 12.1481443259 13.6007953531
6.7926244931 10.1148675333 9.5338875029
3.708975021 14.5905276022 15.8052035657
3.1304763673 10.9442326002 15.411075777
6.3296493342 11.6840553991 13.4520034574
2.7714675475 11.9522651603 14.2755307219
2.8117719209 10.2231853855 13.6657138233
0.4373377839 13.2923528105 14.2710678396
4.7087296194 14.1990890161 11.4277913324
1.9384999912 10.9773590975 16.7679935777
4.2257194688 11.088753158 11.2213695858
5.2422538652 12.5732799596 10.1692625557
6.6822075375 10.3833181162 14.7603833154
1.161480753 13.6561235314 12.9295579167
2.9403042741 8.8658784502 12.8810083692
4.3455878435 12.1610294173 15.5618174824
6.9388387836 9.1995945293 11.9832678868
6.1183081326 7.855417898 16.2212746968
1.9651089096 12.5439637701 10.1876043496
4.1567299632 9.1601468319 15.4347120679
1.6702477512 15.2018065899 9.3235446601
3.4539597496 13.1469541531 16.8530506003
6.7330622661 13.7011907189 15.491124302
4.9321758897 14.2831775202 13.1158594221
5.4019664093 14.3095163682 16.241347755
1.9743764896 14.8550593779 12.6008501256
5.6669403888 9.1068417671 10.7856574412
4.6003101987 15.4331255208 14.40378139
0.6563881228 9.8254288251 16.0697744687
0.3647562747 10.7439912685 12.6767939715
0.9761302781 11.2761793984 9.5277275339
0.442935307 14.4043268366 15.683721392
0.4264604747 11.6761040362 16.7941077384
2.1977952194 9.3852275938 15.7953731758
0.778238557 7.8847771693 18.0941900574
3.3636673944 11.1890766874 17.7246634723
6.4741512871 9.669755596 17.4086729538
8.9525343062 12.4542099787 17.0932664895
11.6368691726 13.4623650096 14.3176463439
10.734998042 12.0028602054 11.4858772509
10.3916243633 12.7069442551 9.5667586662
8.5321585125 13.9642236447 15.6058337228
13.5148609243 11.0874297536 11.0105675591
10.1332826884 10.3464541808 11.2746302808
8.3165395962 9.7387856822 9.7182992745
11.9161501259 13.5537164889 17.6546425079
8.2824563028 10.2338226118 11.4478790634
11.0781868169 10.9393858349 18.0312366364
11.7895419025 13.5805539711 9.8693480409
13.9709363693 8.6303915447 16.751745114
11.5116878839 8.521051621 13.3267894244
7.982918615 14.0708519565 9.594704067
13.235888769 12.139721213 14.0935076854
12.0113102015 12.7737170985 15.8846001626
10.9829603699 10.8858777677 9.9464849605
7.8152230585 12.0167440132 11.6451963362
8.4736277232 10.9024111603 15.4714400987
8.8970276335 13.0160480676 12.7975756944
13.4516938758 14.0875168535 16.9218227386
9.4382446806 14.8620365978 12.5823150963
9.8925852573 13.7789223452 11.2727765446
10.3645083458 10.0400619141 15.7802072203
10.224560451 12.0361824822 13.797534217
9.3483458362 11.2863060653 12.4344983361
12.941018883 11.4057292701 15.5092140289
8.8768074959 12.898154869 10.2097303481
7.7563794364 15.6634693973 12.3883146211
13.9447479362 8.7597166645 10.8921901737
11.526591615 11.2446899325 16.4145157039
9.530869156 10.6218920851 14.2186667958
10.1887812521 8.8325918404 14.3158447106
12.2542013717 15.4857449198 13.9456602561
9.4088694836 14.8155839165 9.7643018388
12.78462853 15.1940171934 12.3450070699
13.0120294336 8.1253982404 14.0516514817
10.2426990896 9.598975699 9.3099622663
8.7384459183 15.4055875623 16.5143029304
12.3767908309 9.7605844061 9.4503254154
10.9967846845 15.4263407807 17.9220447982
9.4902115283 8.1105429968 18.0798590874
7.878272512 10.540992329 17.8333213304
5.5566850867 2.5337374842 3.0437915197
4.5069605348 3.0927779176 4.5016336725
5.7804927612 4.1201715984 3.7765747678
5.5385633904 2.6734313628 8.6519835352
6.1391797444 6.4165347987 7.8056767966
2.4620965423 3.8869792696 6.9791338979
1.8152088087 6.4678901661 2.7656637156
5.5795275299 7.0898672782 6.3444917767
3.9326687814 4.4944574399 1.0189732623
2.2581369358 2.3956078813 0.4708438429
0.1467136229 7.1750263174 7.8858916614
6.3053232212 3.9148407182 2.1026332384
6.1081389354 2.4985700506 1.0389640506
0.8975957494 5.8907733628 5.5286144332
1.9678860596 0.2499883736 4.6661780752
0.5299950949 6.8050540498 1.5599239286
6.983694846 1.2553805538 3.0823835222
0.6121757127 5.5877634321 8.528269475
2.3174833158 4.4077653193 0.7095110476
4.6010142156 0.5718040878 6.606220526
4.6221106062 5.9866432575 8.9524208949
0.2671371297 0.8318433741 8.4779302693
0.3587645415 0.2325366801 1.9920506799
0.6057684774 1.9306964551 0.5055723003
13.8088466546 4.2248532514 2.6948282635
7.7024974626 2.1759762845 6.4271289697
13.0784983004 2.8782267713 3.2351875205
8.3006481514 6.7640405413 0.3244042476
10.4593811858 2.0462222743 1.9137506584
10.6323935372 7.3126848401 3.4038956316
10.2272978365 5.8515022676 3.2355614826
8.3376067353 3.266715269 4.8526551834
11.0724123399 3.748198128 8.225900507
10.0345434095 3.23271233 4.7021736642
7.2379309403 4.6863881035 4.4724954356
10.1704017268 0.1701282613 5.6015181735
12.1767118718 1.8543057512 4.6116913711
11.9266159756 2.6614079928 1.8962367538
7.7443614104 0.5484842804 7.3395496804
8.1257895086 0.7100857896 0.1433485118
5.4752309656 15.1548128569 5.5124759892
2.9259532929 15.2004091176 0.4827867264
5.7333447659 8.8751237638 8.9039035206
3.3410919298 12.5594971779 8.7240738713
0.5944673523 14.4559891296 8.299349928
2.9453035979 8.3837533886 7.5177181112
1.597219655 14.1997455527 4.7123826772
0.7528862908 7.8591976606 2.9882301935
0.8741109858 9.0424796817 1.5270878462
1.2164501778 15.6542949281 0.5826108632
4.1399708728 11.9423131673 2.2351341188
4.8924344495 10.1978405078 0.350086279
5.6302068638 12.6767598029 1.8558864873
2.5014957926 10.7500810405 2.6757354774
1.3152171872 8.2367381094 8.3066340081
2.1446962368 12.8554228142 7.4327407878
4.4146898484 10.6607194912 3.2537097675
0.9652037976 13.1348962601 3.4225450452
2.6753469694 11.6345172444 5.3036051575
2.8897749362 10.0457274933 7.2899199766
1.6536840268 11.6086761981 3.8723673979
0.8336863897 10.8387155201 5.5258089573
0.9453532386 7.9289634513 5.6187783857
0.1602536054 15.5553052263 6.7928280467
6.9786204311 10.0920322261 6.9118041466
3.8326041086 11.0100641702 8.2980874773
6.4806644043 13.6485218951 7.1600124727
12.2740756989 10.771850255 7.7689691222
12.9746832308 15.4319340626 2.6709756527
7.3750358364 15.4679016932 8.8313626656
7.5105969968 11.2429500479 8.6606883347
9.3849987094 10.5852934855 4.1742359628
8.5362828341 11.6689428035 2.6013679882
9.0433327668 8.3405092058 8.7965520343
13.9687571761 9.3421621405 5.4023063735
13.8134728996 10.3011284835 1.25374311
13.4341038993 12.1273596033 7.6406479539
7.4858092813 9.2251663944 3.9466580206
12.8875428666 11.8277534104 1.2640992914
11.2097592493 9.2905880373 6.6636628013
10.0436717206 15.3205811248 4.0978817656
8.2166064428 13.3297738149 0.3426012447
11.2711266815 12.3083836685 0.975159796
8.6705510623 9.5209929265 5.0180896689
11.9851883325 12.0469023618 6.5064319126
12.8457296954 9.4363957701 6.9386378786
8.551967543 10.4835872189 6.7381982133
13.2434741462 8.9573295897 0.1640519852
10.3357789068 14.8854215958 1.4096198895
10.6314956064 11.9007597922 5.1885336063
9.3735630074 13.1282670317 1.6461172323
8.2666191589 10.3222950999 1.6563116938
11.2090580057 8.5375698967 2.2646460288
13.0976015272 10.9536530843 2.9631023578
11.7793175457 11.8626305279 2.5338355917
0.029684171 5.6350440453 13.3897726769
1.7643430687 5.8790988314 13.266924657
0.2779154339 7.1647266704 14.2141278394
6.0977423693 6.0617054685 9.8805150295
0.8420233288 0.354204447 15.8730311737
6.0056866625 7.6990770388 14.3580881683
1.078731487 4.0372386491 9.6356306535
0.9426991763 5.6531580782 10.2999639086
6.6754704531 7.4819529859 11.718814407
3.3922193352 5.2175413029 13.7389306644
0.7064310202 3.4241011048 15.7125256664
4.4374084707 2.9147855183 16.4510253789
2.0505785152 2.0038309087 10.0381718762
1.9459945718 2.780859796 12.9205719627
5.6654923787 4.0024980342 13.165839574
6.1822474357 4.2654203118 14.697320713
6.5629880584 7.0921734852 17.9339372403
4.4606270463 4.8957258584 12.166583781
4.7839886324 3.0211304585 14.8196126457
0.0377047203 0.4653782639 11.8853672702
1.7330398381 3.5783981135 17.2947063848
0.0890433395 0.4865706332 17.3133414465
8.5678105348 6.2996111695 13.8718791936
8.5579552952 3.2331339949 12.1128151397
12.364832063 7.3950587163 10.5197203038
13.2831012112 5.6608618915 16.5282378799
11.2344151427 7.1759816177 17.9595966881
13.7823851014 4.7215499374 15.2100498383
7.6508613492 6.579073254 10.5451516352
7.1744895335 1.4705486893 13.863518916
13.8684768715 2.2608472652 16.9541452189
13.1465018156 4.8856464711 17.920142682
9.5219440501 2.3639040819 17.0253108149
12.7439093656 0.8396062748 10.8841824186
13.5252034649 3.5252440619 9.4589780703
7.8546947577 6.0761633929 12.0700806342
8.8609757684 4.266223824 10.5933872344
7.5818157427 4.5100093634 12.0383377942
13.4437178355 4.1080671415 13.755750214
11.9464857381 3.7368508698 13.1874278445
12.5812895895 3.2725902671 17.2363818804
11.6491372088 6.5207973942 16.4388082132
5.8422159219 15.0212228492 17.6726378911
3.8711604552 15.5973907318 17.3102711478
3.5956064001 13.0243295337 10.5317283645
4.8289797545 12.4588073129 14.0087552637
2.2589696332 14.6755003365 16.6970206911
1.3196004809 11.0425747991 11.1859170683
4.7853428212 11.0460537112 12.9883673346
4.2615914147 8.2467614713 16.8334988033
4.4419174982 9.3810032799 13.7396228498
5.9787664472 9.8156704568 13.133873464
6.1797948059 13.4088901858 13.9942036809
6.6118055698 13.0973371939 11.005817084
3.9982313016 9.3427382613 10.0659710642
2.9787260702 14.7109050904 10.8407276757
6.5600007203 14.329467503 12.1173416681
2.6841569904 9.9991945645 11.3436839279
6.007958236 12.4851531447 16.7869639886
0.1929764307 14.4518870069 11.6153726491
7.0215686505 8.7806786784 13.6412080931
0.8969010047 13.8155746155 10.1127035709
2.9903151853 7.9220120586 15.5582172986
1.1038984256 9.58202851 10.10705158
4.231466141 7.9056670142 13.1504002554
13.2227878836 9.5570908183 12.8250687605
7.5521213185 12.454584357 15.967102495
12.2590436453 13.6674387216 11.7002773824
7.0966064481 12.9326243335 12.5508092528
13.0739017076 12.7352147794 10.4539720784
7.5527265487 9.5438694934 16.0002713279
8.9499032863 9.7536182842 16.7162215992
10.6557831458 12.3967215162 17.2926037515
10.6397959465 15.1647034203 13.9186266794
9.7586167809 13.579268321 14.4031790558
12.7189884526 11.090230868 12.4729912277
11.9606567323 12.5695508133 13.0481683208
13.8446934041 10.3722607724 14.3972140408
7.4604666146 12.1386149186 17.6082294937
