"B12 Cr8"
1.0
       18.1886749268         0.0000000000         0.0000000000
        0.0000000000        14.5109977722         0.0000000000
        0.0000000000         0.0000000000        18.5502529144
    B   Cr
  360  240
Direct
     0.271206991         0.068660413         0.488116625
     0.271206991         0.068660413         0.988116625
     0.271206991         0.268660413         0.488116625
     0.271206991         0.268660413         0.988116625
     0.271206991         0.468660413         0.488116625
     0.271206991         0.468660413         0.988116625
     0.271206991         0.668660413         0.488116625
     0.271206991         0.668660413         0.988116625
     0.271206991         0.868660413         0.488116625
     0.271206991         0.868660413         0.988116625
     0.604540324         0.068660413         0.488116625
     0.604540324         0.068660413         0.988116625
     0.604540324         0.268660413         0.488116625
     0.604540324         0.268660413         0.988116625
     0.604540324         0.468660413         0.488116625
     0.604540324         0.468660413         0.988116625
     0.604540324         0.668660413         0.488116625
     0.604540324         0.668660413         0.988116625
     0.604540324         0.868660413         0.488116625
     0.604540324         0.868660413         0.988116625
     0.937873657         0.068660413         0.488116625
     0.937873657         0.068660413         0.988116625
     0.937873657         0.268660413         0.488116625
     0.937873657         0.268660413         0.988116625
     0.937873657         0.468660413         0.488116625
     0.937873657         0.468660413         0.988116625
     0.937873657         0.668660413         0.488116625
     0.937873657         0.668660413         0.988116625
     0.937873657         0.868660413         0.488116625
     0.937873657         0.868660413         0.988116625
     0.309608623         0.168709026         0.340290477
     0.309608623         0.168709026         0.840290477
     0.309608623         0.368709026         0.340290477
     0.309608623         0.368709026         0.840290477
     0.309608623         0.568709026         0.340290477
     0.309608623         0.568709026         0.840290477
     0.309608623         0.768709026         0.340290477
     0.309608623         0.768709026         0.840290477
     0.309608623         0.968709026         0.340290477
     0.309608623         0.968709026         0.840290477
     0.642941957         0.168709026         0.340290477
     0.642941957         0.168709026         0.840290477
     0.642941957         0.368709026         0.340290477
     0.642941957         0.368709026         0.840290477
     0.642941957         0.568709026         0.340290477
     0.642941957         0.568709026         0.840290477
     0.642941957         0.768709026         0.340290477
     0.642941957         0.768709026         0.840290477
     0.642941957         0.968709026         0.340290477
     0.642941957         0.968709026         0.840290477
     0.976275290         0.168709026         0.340290477
     0.976275290         0.168709026         0.840290477
     0.976275290         0.368709026         0.340290477
     0.976275290         0.368709026         0.840290477
     0.976275290         0.568709026         0.340290477
     0.976275290         0.568709026         0.840290477
     0.976275290         0.768709026         0.340290477
     0.976275290         0.768709026         0.840290477
     0.976275290         0.968709026         0.340290477
     0.976275290         0.968709026         0.840290477
     0.075911442         0.168153705         0.190826115
     0.075911442         0.168153705         0.690826115
     0.075911442         0.368153705         0.190826115
     0.075911442         0.368153705         0.690826115
     0.075911442         0.568153705         0.190826115
     0.075911442         0.568153705         0.690826115
     0.075911442         0.768153705         0.190826115
     0.075911442         0.768153705         0.690826115
     0.075911442         0.968153705         0.190826115
     0.075911442         0.968153705         0.690826115
     0.409244775         0.168153705         0.190826115
     0.409244775         0.168153705         0.690826115
     0.409244775         0.368153705         0.190826115
     0.409244775         0.368153705         0.690826115
     0.409244775         0.568153705         0.190826115
     0.409244775         0.568153705         0.690826115
     0.409244775         0.768153705         0.190826115
     0.409244775         0.768153705         0.690826115
     0.409244775         0.968153705         0.190826115
     0.409244775         0.968153705         0.690826115
     0.742578109         0.168153705         0.190826115
     0.742578109         0.168153705         0.690826115
     0.742578109         0.368153705         0.190826115
     0.742578109         0.368153705         0.690826115
     0.742578109         0.568153705         0.190826115
     0.742578109         0.568153705         0.690826115
     0.742578109         0.768153705         0.190826115
     0.742578109         0.768153705         0.690826115
     0.742578109         0.968153705         0.190826115
     0.742578109         0.968153705         0.690826115
     0.001261209         0.067882011         0.054769077
     0.001261209         0.067882011         0.554769077
     0.001261209         0.267882011         0.054769077
     0.001261209         0.267882011         0.554769077
     0.001261209         0.467882011         0.054769077
     0.001261209         0.467882011         0.554769077
     0.001261209         0.667882011         0.054769077
     0.001261209         0.667882011         0.554769077
     0.001261209         0.867882011         0.054769077
     0.001261209         0.867882011         0.554769077
     0.334594542         0.067882011         0.054769077
     0.334594542         0.067882011         0.554769077
     0.334594542         0.267882011         0.054769077
     0.334594542         0.267882011         0.554769077
     0.334594542         0.467882011         0.054769077
     0.334594542         0.467882011         0.554769077
     0.334594542         0.667882011         0.054769077
     0.334594542         0.667882011         0.554769077
     0.334594542         0.867882011         0.054769077
     0.334594542         0.867882011         0.554769077
     0.667927875         0.067882011         0.054769077
     0.667927875         0.067882011         0.554769077
     0.667927875         0.267882011         0.054769077
     0.667927875         0.267882011         0.554769077
     0.667927875         0.467882011         0.054769077
     0.667927875         0.467882011         0.554769077
     0.667927875         0.667882011         0.054769077
     0.667927875         0.667882011         0.554769077
     0.667927875         0.867882011         0.054769077
     0.667927875         0.867882011         0.554769077
     0.149190368         0.068769603         0.364000582
     0.149190368         0.068769603         0.864000582
     0.149190368         0.268769603         0.364000582
     0.149190368         0.268769603         0.864000582
     0.149190368         0.468769603         0.364000582
     0.149190368         0.468769603         0.864000582
     0.149190368         0.668769603         0.364000582
     0.149190368         0.668769603         0.864000582
     0.149190368         0.868769603         0.364000582
     0.149190368         0.868769603         0.864000582
     0.482523702         0.068769603         0.364000582
     0.482523702         0.068769603         0.864000582
     0.482523702         0.268769603         0.364000582
     0.482523702         0.268769603         0.864000582
     0.482523702         0.468769603         0.364000582
     0.482523702         0.468769603         0.864000582
     0.482523702         0.668769603         0.364000582
     0.482523702         0.668769603         0.864000582
     0.482523702         0.868769603         0.364000582
     0.482523702         0.868769603         0.864000582
     0.815857035         0.068769603         0.364000582
     0.815857035         0.068769603         0.864000582
     0.815857035         0.268769603         0.364000582
     0.815857035         0.268769603         0.864000582
     0.815857035         0.468769603         0.364000582
     0.815857035         0.468769603         0.864000582
     0.815857035         0.668769603         0.364000582
     0.815857035         0.668769603         0.864000582
     0.815857035         0.868769603         0.364000582
     0.815857035         0.868769603         0.864000582
     0.310458900         0.068527726         0.395228334
     0.310458900         0.068527726         0.895228334
     0.310458900         0.268527726         0.395228334
     0.310458900         0.268527726         0.895228334
     0.310458900         0.468527726         0.395228334
     0.310458900         0.468527726         0.895228334
     0.310458900         0.668527726         0.395228334
     0.310458900         0.668527726         0.895228334
     0.310458900         0.868527726         0.395228334
     0.310458900         0.868527726         0.895228334
     0.643792233         0.068527726         0.395228334
     0.643792233         0.068527726         0.895228334
     0.643792233         0.268527726         0.395228334
     0.643792233         0.268527726         0.895228334
     0.643792233         0.468527726         0.395228334
     0.643792233         0.468527726         0.895228334
     0.643792233         0.668527726         0.395228334
     0.643792233         0.668527726         0.895228334
     0.643792233         0.868527726         0.395228334
     0.643792233         0.868527726         0.895228334
     0.977125566         0.068527726         0.395228334
     0.977125566         0.068527726         0.895228334
     0.977125566         0.268527726         0.395228334
     0.977125566         0.268527726         0.895228334
     0.977125566         0.468527726         0.395228334
     0.977125566         0.468527726         0.895228334
     0.977125566         0.668527726         0.395228334
     0.977125566         0.668527726         0.895228334
     0.977125566         0.868527726         0.395228334
     0.977125566         0.868527726         0.895228334
     0.322329041         0.168285922         0.246018924
     0.322329041         0.168285922         0.746018924
     0.322329041         0.368285922         0.246018924
     0.322329041         0.368285922         0.746018924
     0.322329041         0.568285922         0.246018924
     0.322329041         0.568285922         0.746018924
     0.322329041         0.768285922         0.246018924
     0.322329041         0.768285922         0.746018924
     0.322329041         0.968285922         0.246018924
     0.322329041         0.968285922         0.746018924
     0.655662375         0.168285922         0.246018924
     0.655662375         0.168285922         0.746018924
     0.655662375         0.368285922         0.246018924
     0.655662375         0.368285922         0.746018924
     0.655662375         0.568285922         0.246018924
     0.655662375         0.568285922         0.746018924
     0.655662375         0.768285922         0.246018924
     0.655662375         0.768285922         0.746018924
     0.655662375         0.968285922         0.246018924
     0.655662375         0.968285922         0.746018924
     0.988995708         0.168285922         0.246018924
     0.988995708         0.168285922         0.746018924
     0.988995708         0.368285922         0.246018924
     0.988995708         0.368285922         0.746018924
     0.988995708         0.568285922         0.246018924
     0.988995708         0.568285922         0.746018924
     0.988995708         0.768285922         0.246018924
     0.988995708         0.768285922         0.746018924
     0.988995708         0.968285922         0.246018924
     0.988995708         0.968285922         0.746018924
     0.182402813         0.068283444         0.030222359
     0.182402813         0.068283444         0.530222359
     0.182402813         0.268283444         0.030222359
     0.182402813         0.268283444         0.530222359
     0.182402813         0.468283444         0.030222359
     0.182402813         0.468283444         0.530222359
     0.182402813         0.668283444         0.030222359
     0.182402813         0.668283444         0.530222359
     0.182402813         0.868283444         0.030222359
     0.182402813         0.868283444         0.530222359
     0.515736146         0.068283444         0.030222359
     0.515736146         0.068283444         0.530222359
     0.515736146         0.268283444         0.030222359
     0.515736146         0.268283444         0.530222359
     0.515736146         0.468283444         0.030222359
     0.515736146         0.468283444         0.530222359
     0.515736146         0.668283444         0.030222359
     0.515736146         0.668283444         0.530222359
     0.515736146         0.868283444         0.030222359
     0.515736146         0.868283444         0.530222359
     0.849069479         0.068283444         0.030222359
     0.849069479         0.068283444         0.530222359
     0.849069479         0.268283444         0.030222359
     0.849069479         0.268283444         0.530222359
     0.849069479         0.468283444         0.030222359
     0.849069479         0.468283444         0.530222359
     0.849069479         0.668283444         0.030222359
     0.849069479         0.668283444         0.530222359
     0.849069479         0.868283444         0.030222359
     0.849069479         0.868283444         0.530222359
     0.035680502         0.068402932         0.472816906
     0.035680502         0.068402932         0.972816906
     0.035680502         0.268402932         0.472816906
     0.035680502         0.268402932         0.972816906
     0.035680502         0.468402932         0.472816906
     0.035680502         0.468402932         0.972816906
     0.035680502         0.668402932         0.472816906
     0.035680502         0.668402932         0.972816906
     0.035680502         0.868402932         0.472816906
     0.035680502         0.868402932         0.972816906
     0.369013835         0.068402932         0.472816906
     0.369013835         0.068402932         0.972816906
     0.369013835         0.268402932         0.472816906
     0.369013835         0.268402932         0.972816906
     0.369013835         0.468402932         0.472816906
     0.369013835         0.468402932         0.972816906
     0.369013835         0.668402932         0.472816906
     0.369013835         0.668402932         0.972816906
     0.369013835         0.868402932         0.472816906
     0.369013835         0.868402932         0.972816906
     0.702347169         0.068402932         0.472816906
     0.702347169         0.068402932         0.972816906
     0.702347169         0.268402932         0.472816906
     0.702347169         0.268402932         0.972816906
     0.702347169         0.468402932         0.472816906
     0.702347169         0.468402932         0.972816906
     0.702347169         0.668402932         0.472816906
     0.702347169         0.668402932         0.972816906
     0.702347169         0.868402932         0.472816906
     0.702347169         0.868402932         0.972816906
     0.128147766         0.068601221         0.457485975
     0.128147766         0.068601221         0.957485975
     0.128147766         0.268601221         0.457485975
     0.128147766         0.268601221         0.957485975
     0.128147766         0.468601221         0.457485975
     0.128147766         0.468601221         0.957485975
     0.128147766         0.668601221         0.457485975
     0.128147766         0.668601221         0.957485975
     0.128147766         0.868601221         0.457485975
     0.128147766         0.868601221         0.957485975
     0.461481099         0.068601221         0.457485975
     0.461481099         0.068601221         0.957485975
     0.461481099         0.268601221         0.457485975
     0.461481099         0.268601221         0.957485975
     0.461481099         0.468601221         0.457485975
     0.461481099         0.468601221         0.957485975
     0.461481099         0.668601221         0.457485975
     0.461481099         0.668601221         0.957485975
     0.461481099         0.868601221         0.457485975
     0.461481099         0.868601221         0.957485975
     0.794814433         0.068601221         0.457485975
     0.794814433         0.068601221         0.957485975
     0.794814433         0.268601221         0.457485975
     0.794814433         0.268601221         0.957485975
     0.794814433         0.468601221         0.457485975
     0.794814433         0.468601221         0.957485975
     0.794814433         0.668601221         0.457485975
     0.794814433         0.668601221         0.957485975
     0.794814433         0.868601221         0.457485975
     0.794814433         0.868601221         0.957485975
     0.241016517         0.168289302         0.193204308
     0.241016517         0.168289302         0.693204308
     0.241016517         0.368289302         0.193204308
     0.241016517         0.368289302         0.693204308
     0.241016517         0.568289302         0.193204308
     0.241016517         0.568289302         0.693204308
     0.241016517         0.768289302         0.193204308
     0.241016517         0.768289302         0.693204308
     0.241016517         0.968289302         0.193204308
     0.241016517         0.968289302         0.693204308
     0.574349850         0.168289302         0.193204308
     0.574349850         0.168289302         0.693204308
     0.574349850         0.368289302         0.193204308
     0.574349850         0.368289302         0.693204308
     0.574349850         0.568289302         0.193204308
     0.574349850         0.568289302         0.693204308
     0.574349850         0.768289302         0.193204308
     0.574349850         0.768289302         0.693204308
     0.574349850         0.968289302         0.193204308
     0.574349850         0.968289302         0.693204308
     0.907683183         0.168289302         0.193204308
     0.907683183         0.168289302         0.693204308
     0.907683183         0.368289302         0.193204308
     0.907683183         0.368289302         0.693204308
     0.907683183         0.568289302         0.193204308
     0.907683183         0.568289302         0.693204308
     0.907683183         0.768289302         0.193204308
     0.907683183         0.768289302         0.693204308
     0.907683183         0.968289302         0.193204308
     0.907683183         0.968289302         0.693204308
     0.156451352         0.168179065         0.242566451
     0.156451352         0.168179065         0.742566451
     0.156451352         0.368179065         0.242566451
     0.156451352         0.368179065         0.742566451
     0.156451352         0.568179065         0.242566451
     0.156451352         0.568179065         0.742566451
     0.156451352         0.768179065         0.242566451
     0.156451352         0.768179065         0.742566451
     0.156451352         0.968179065         0.242566451
     0.156451352         0.968179065         0.742566451
     0.489784685         0.168179065         0.242566451
     0.489784685         0.168179065         0.742566451
     0.489784685         0.368179065         0.242566451
     0.489784685         0.368179065         0.742566451
     0.489784685         0.568179065         0.242566451
     0.489784685         0.568179065         0.742566451
     0.489784685         0.768179065         0.242566451
     0.489784685         0.768179065         0.742566451
     0.489784685         0.968179065         0.242566451
     0.489784685         0.968179065         0.742566451
     0.823118019         0.168179065         0.242566451
     0.823118019         0.168179065         0.742566451
     0.823118019         0.368179065         0.242566451
     0.823118019         0.368179065         0.742566451
     0.823118019         0.568179065         0.242566451
     0.823118019         0.568179065         0.742566451
     0.823118019         0.768179065         0.242566451
     0.823118019         0.768179065         0.742566451
     0.823118019         0.968179065         0.242566451
     0.823118019         0.968179065         0.742566451
     0.073798077         0.068228736         0.280224517
     0.073798077         0.068228736         0.780224517
     0.073798077         0.268228736         0.280224517
     0.073798077         0.268228736         0.780224517
     0.073798077         0.468228736         0.280224517
     0.073798077         0.468228736         0.780224517
     0.073798077         0.668228736         0.280224517
     0.073798077         0.668228736         0.780224517
     0.073798077         0.868228736         0.280224517
     0.073798077         0.868228736         0.780224517
     0.407131410         0.068228736         0.280224517
     0.407131410         0.068228736         0.780224517
     0.407131410         0.268228736         0.280224517
     0.407131410         0.268228736         0.780224517
     0.407131410         0.468228736         0.280224517
     0.407131410         0.468228736         0.780224517
     0.407131410         0.668228736         0.280224517
     0.407131410         0.668228736         0.780224517
     0.407131410         0.868228736         0.280224517
     0.407131410         0.868228736         0.780224517
     0.740464744         0.068228736         0.280224517
     0.740464744         0.068228736         0.780224517
     0.740464744         0.268228736         0.280224517
     0.740464744         0.268228736         0.780224517
     0.740464744         0.468228736         0.280224517
     0.740464744         0.468228736         0.780224517
     0.740464744         0.668228736         0.280224517
     0.740464744         0.668228736         0.780224517
     0.740464744         0.868228736         0.280224517
     0.740464744         0.868228736         0.780224517
     0.159281611         0.068215643         0.155229551
     0.159281611         0.068215643         0.655229551
     0.159281611         0.268215643         0.155229551
     0.159281611         0.268215643         0.655229551
     0.159281611         0.468215643         0.155229551
     0.159281611         0.468215643         0.655229551
     0.159281611         0.668215643         0.155229551
     0.159281611         0.668215643         0.655229551
     0.159281611         0.868215643         0.155229551
     0.159281611         0.868215643         0.655229551
     0.492614945         0.068215643         0.155229551
     0.492614945         0.068215643         0.655229551
     0.492614945         0.268215643         0.155229551
     0.492614945         0.268215643         0.655229551
     0.492614945         0.468215643         0.155229551
     0.492614945         0.468215643         0.655229551
     0.492614945         0.668215643         0.155229551
     0.492614945         0.668215643         0.655229551
     0.492614945         0.868215643         0.155229551
     0.492614945         0.868215643         0.655229551
     0.825948278         0.068215643         0.155229551
     0.825948278         0.068215643         0.655229551
     0.825948278         0.268215643         0.155229551
     0.825948278         0.268215643         0.655229551
     0.825948278         0.468215643         0.155229551
     0.825948278         0.468215643         0.655229551
     0.825948278         0.668215643         0.155229551
     0.825948278         0.668215643         0.655229551
     0.825948278         0.868215643         0.155229551
     0.825948278         0.868215643         0.655229551
     0.071857146         0.168667349         0.398851075
     0.071857146         0.168667349         0.898851075
     0.071857146         0.368667349         0.398851075
     0.071857146         0.368667349         0.898851075
     0.071857146         0.568667349         0.398851075
     0.071857146         0.568667349         0.898851075
     0.071857146         0.768667349         0.398851075
     0.071857146         0.768667349         0.898851075
     0.071857146         0.968667349         0.398851075
     0.071857146         0.968667349         0.898851075
     0.405190479         0.168667349         0.398851075
     0.405190479         0.168667349         0.898851075
     0.405190479         0.368667349         0.398851075
     0.405190479         0.368667349         0.898851075
     0.405190479         0.568667349         0.398851075
     0.405190479         0.568667349         0.898851075
     0.405190479         0.768667349         0.398851075
     0.405190479         0.768667349         0.898851075
     0.405190479         0.968667349         0.398851075
     0.405190479         0.968667349         0.898851075
     0.738523812         0.168667349         0.398851075
     0.738523812         0.168667349         0.898851075
     0.738523812         0.368667349         0.398851075
     0.738523812         0.368667349         0.898851075
     0.738523812         0.568667349         0.398851075
     0.738523812         0.568667349         0.898851075
     0.738523812         0.768667349         0.398851075
     0.738523812         0.768667349         0.898851075
     0.738523812         0.968667349         0.398851075
     0.738523812         0.968667349         0.898851075
     0.235416917         0.068411932         0.288310139
     0.235416917         0.068411932         0.788310139
     0.235416917         0.268411932         0.288310139
     0.235416917         0.268411932         0.788310139
     0.235416917         0.468411932         0.288310139
     0.235416917         0.468411932         0.788310139
     0.235416917         0.668411932         0.288310139
     0.235416917         0.668411932         0.788310139
     0.235416917         0.868411932         0.288310139
     0.235416917         0.868411932         0.788310139
     0.568750250         0.068411932         0.288310139
     0.568750250         0.068411932         0.788310139
     0.568750250         0.268411932         0.288310139
     0.568750250         0.268411932         0.788310139
     0.568750250         0.468411932         0.288310139
     0.568750250         0.468411932         0.788310139
     0.568750250         0.668411932         0.288310139
     0.568750250         0.668411932         0.788310139
     0.568750250         0.868411932         0.288310139
     0.568750250         0.868411932         0.788310139
     0.902083584         0.068411932         0.288310139
     0.902083584         0.068411932         0.788310139
     0.902083584         0.268411932         0.288310139
     0.902083584         0.268411932         0.788310139
     0.902083584         0.468411932         0.288310139
     0.902083584         0.468411932         0.788310139
     0.902083584         0.668411932         0.288310139
     0.902083584         0.668411932         0.788310139
     0.902083584         0.868411932         0.288310139
     0.902083584         0.868411932         0.788310139
     0.249885373         0.168256157         0.073179443
     0.249885373         0.168256157         0.573179443
     0.249885373         0.368256157         0.073179443
     0.249885373         0.368256157         0.573179443
     0.249885373         0.568256157         0.073179443
     0.249885373         0.568256157         0.573179443
     0.249885373         0.768256157         0.073179443
     0.249885373         0.768256157         0.573179443
     0.249885373         0.968256157         0.073179443
     0.249885373         0.968256157         0.573179443
     0.583218707         0.168256157         0.073179443
     0.583218707         0.168256157         0.573179443
     0.583218707         0.368256157         0.073179443
     0.583218707         0.368256157         0.573179443
     0.583218707         0.568256157         0.073179443
     0.583218707         0.568256157         0.573179443
     0.583218707         0.768256157         0.073179443
     0.583218707         0.768256157         0.573179443
     0.583218707         0.968256157         0.073179443
     0.583218707         0.968256157         0.573179443
     0.916552040         0.168256157         0.073179443
     0.916552040         0.168256157         0.573179443
     0.916552040         0.368256157         0.073179443
     0.916552040         0.368256157         0.573179443
     0.916552040         0.568256157         0.073179443
     0.916552040         0.568256157         0.573179443
     0.916552040         0.768256157         0.073179443
     0.916552040         0.768256157         0.573179443
     0.916552040         0.968256157         0.073179443
     0.916552040         0.968256157         0.573179443
     0.328025207         0.068170910         0.162063882
     0.328025207         0.068170910         0.662063882
     0.328025207         0.268170910         0.162063882
     0.328025207         0.268170910         0.662063882
     0.328025207         0.468170910         0.162063882
     0.328025207         0.468170910         0.662063882
     0.328025207         0.668170910         0.162063882
     0.328025207         0.668170910         0.662063882
     0.328025207         0.868170910         0.162063882
     0.328025207         0.868170910         0.662063882
     0.661358540         0.068170910         0.162063882
     0.661358540         0.068170910         0.662063882
     0.661358540         0.268170910         0.162063882
     0.661358540         0.268170910         0.662063882
     0.661358540         0.468170910         0.162063882
     0.661358540         0.468170910         0.662063882
     0.661358540         0.668170910         0.162063882
     0.661358540         0.668170910         0.662063882
     0.661358540         0.868170910         0.162063882
     0.661358540         0.868170910         0.662063882
     0.994691874         0.068170910         0.162063882
     0.994691874         0.068170910         0.662063882
     0.994691874         0.268170910         0.162063882
     0.994691874         0.268170910         0.662063882
     0.994691874         0.468170910         0.162063882
     0.994691874         0.468170910         0.662063882
     0.994691874         0.668170910         0.162063882
     0.994691874         0.668170910         0.662063882
     0.994691874         0.868170910         0.162063882
     0.994691874         0.868170910         0.662063882
     0.213575406         0.168848345         0.423270628
     0.213575406         0.168848345         0.923270628
     0.213575406         0.368848345         0.423270628
     0.213575406         0.368848345         0.923270628
     0.213575406         0.568848345         0.423270628
     0.213575406         0.568848345         0.923270628
     0.213575406         0.768848345         0.423270628
     0.213575406         0.768848345         0.923270628
     0.213575406         0.968848345         0.423270628
     0.213575406         0.968848345         0.923270628
     0.546908740         0.168848345         0.423270628
     0.546908740         0.168848345         0.923270628
     0.546908740         0.368848345         0.423270628
     0.546908740         0.368848345         0.923270628
     0.546908740         0.568848345         0.423270628
     0.546908740         0.568848345         0.923270628
     0.546908740         0.768848345         0.423270628
     0.546908740         0.768848345         0.923270628
     0.546908740         0.968848345         0.423270628
     0.546908740         0.968848345         0.923270628
     0.880242073         0.168848345         0.423270628
     0.880242073         0.168848345         0.923270628
     0.880242073         0.368848345         0.423270628
     0.880242073         0.368848345         0.923270628
     0.880242073         0.568848345         0.423270628
     0.880242073         0.568848345         0.923270628
     0.880242073         0.768848345         0.423270628
     0.880242073         0.768848345         0.923270628
     0.880242073         0.968848345         0.423270628
     0.880242073         0.968848345         0.923270628
     0.092681405         0.168188557         0.049009630
     0.092681405         0.168188557         0.549009630
     0.092681405         0.368188557         0.049009630
     0.092681405         0.368188557         0.549009630
     0.092681405         0.568188557         0.049009630
     0.092681405         0.568188557         0.549009630
     0.092681405         0.768188557         0.049009630
     0.092681405         0.768188557         0.549009630
     0.092681405         0.968188557         0.049009630
     0.092681405         0.968188557         0.549009630
     0.426014739         0.168188557         0.049009630
     0.426014739         0.168188557         0.549009630
     0.426014739         0.368188557         0.049009630
     0.426014739         0.368188557         0.549009630
     0.426014739         0.568188557         0.049009630
     0.426014739         0.568188557         0.549009630
     0.426014739         0.768188557         0.049009630
     0.426014739         0.768188557         0.549009630
     0.426014739         0.968188557         0.049009630
     0.426014739         0.968188557         0.549009630
     0.759348072         0.168188557         0.049009630
     0.759348072         0.168188557         0.549009630
     0.759348072         0.368188557         0.049009630
     0.759348072         0.368188557         0.549009630
     0.759348072         0.568188557         0.049009630
     0.759348072         0.568188557         0.549009630
     0.759348072         0.768188557         0.049009630
     0.759348072         0.768188557         0.549009630
     0.759348072         0.968188557         0.049009630
     0.759348072         0.968188557         0.549009630
