TITL Fe3B.vasp  10.00696372765504  149.95235812849555  -129.70273039740152 0 0 16 (Pnma)  n - 1
REM
REM
CELL 1.54180    4.348529    5.279825    6.531176    90.000558    89.998059    89.99884    
LATT -1
SFAC Fe  B  
Fe  1  0.6240379587063718  0.9762450990646625  0.2499999913596109  1.0  
Fe  1  0.6479703017014442  0.6789909156989143  0.5548815740730929  1.0  
Fe  1  0.6479708655048922  0.6789907619749158  0.9451185096702841  1.0  
Fe  1  0.8520295509946182  0.17899086765882433  0.5548816247030925  1.0  
Fe  1  0.8520290535905833  0.17899068089670542  0.9451185648940558  1.0  
Fe  1  0.8759620133673734  0.4762450203821649  0.2500001431013846  1.0  
Fe  1  0.12403798663262461  0.5237549796178359  0.749999856898615  1.0  
Fe  1  0.14797094640941458  0.8210093191032952  0.05488143510594416  1.0  
Fe  1  0.1479704490053799  0.8210091323411761  0.44511837529690723  1.0  
Fe  1  0.3520291344951056  0.3210092380250846  0.05488149032971559  1.0  
Fe  1  0.3520296982985542  0.3210090843010861  0.4451184259269066  1.0  
Fe  1  0.3759620412936264  0.023754900935337723  0.7500000086403885  1.0  
B  1  0.5737062507220272  0.38393653938641725  0.749999977662841  1.0  
B  1  0.9262938187455024  0.8839365685036905  0.7500001083673117  1.0  
B  1  0.07370618125449555  0.11606343149630954  0.24999989163268824  1.0  
B  1  0.4262937492779704  0.6160634606135834  0.25000002233715823  1.0  
END
