"B18 Cr2"
1.0
       18.1139926910         0.0000000000         0.0000000000
        0.0000000000        13.7663469315         0.0000000000
        0.0000000000         0.0000000000        15.7958602905
    B   Cr
  486   54
Direct
     0.105801876         0.280512225         0.053281817
     0.105801876         0.280512225         0.386615150
     0.105801876         0.280512225         0.719948483
     0.105801876         0.613845559         0.053281817
     0.105801876         0.613845559         0.386615150
     0.105801876         0.613845559         0.719948483
     0.105801876         0.947178892         0.053281817
     0.105801876         0.947178892         0.386615150
     0.105801876         0.947178892         0.719948483
     0.439135209         0.280512225         0.053281817
     0.439135209         0.280512225         0.386615150
     0.439135209         0.280512225         0.719948483
     0.439135209         0.613845559         0.053281817
     0.439135209         0.613845559         0.386615150
     0.439135209         0.613845559         0.719948483
     0.439135209         0.947178892         0.053281817
     0.439135209         0.947178892         0.386615150
     0.439135209         0.947178892         0.719948483
     0.772468543         0.280512225         0.053281817
     0.772468543         0.280512225         0.386615150
     0.772468543         0.280512225         0.719948483
     0.772468543         0.613845559         0.053281817
     0.772468543         0.613845559         0.386615150
     0.772468543         0.613845559         0.719948483
     0.772468543         0.947178892         0.053281817
     0.772468543         0.947178892         0.386615150
     0.772468543         0.947178892         0.719948483
     0.236639574         0.163682403         0.090037027
     0.236639574         0.163682403         0.423370360
     0.236639574         0.163682403         0.756703693
     0.236639574         0.497015736         0.090037027
     0.236639574         0.497015736         0.423370360
     0.236639574         0.497015736         0.756703693
     0.236639574         0.830349069         0.090037027
     0.236639574         0.830349069         0.423370360
     0.236639574         0.830349069         0.756703693
     0.569972908         0.163682403         0.090037027
     0.569972908         0.163682403         0.423370360
     0.569972908         0.163682403         0.756703693
     0.569972908         0.497015736         0.090037027
     0.569972908         0.497015736         0.423370360
     0.569972908         0.497015736         0.756703693
     0.569972908         0.830349069         0.090037027
     0.569972908         0.830349069         0.423370360
     0.569972908         0.830349069         0.756703693
     0.903306241         0.163682403         0.090037027
     0.903306241         0.163682403         0.423370360
     0.903306241         0.163682403         0.756703693
     0.903306241         0.497015736         0.090037027
     0.903306241         0.497015736         0.423370360
     0.903306241         0.497015736         0.756703693
     0.903306241         0.830349069         0.090037027
     0.903306241         0.830349069         0.423370360
     0.903306241         0.830349069         0.756703693
     0.276456914         0.049647102         0.132701100
     0.276456914         0.049647102         0.466034433
     0.276456914         0.049647102         0.799367767
     0.276456914         0.382980436         0.132701100
     0.276456914         0.382980436         0.466034433
     0.276456914         0.382980436         0.799367767
     0.276456914         0.716313769         0.132701100
     0.276456914         0.716313769         0.466034433
     0.276456914         0.716313769         0.799367767
     0.609790248         0.049647102         0.132701100
     0.609790248         0.049647102         0.466034433
     0.609790248         0.049647102         0.799367767
     0.609790248         0.382980436         0.132701100
     0.609790248         0.382980436         0.466034433
     0.609790248         0.382980436         0.799367767
     0.609790248         0.716313769         0.132701100
     0.609790248         0.716313769         0.466034433
     0.609790248         0.716313769         0.799367767
     0.943123581         0.049647102         0.132701100
     0.943123581         0.049647102         0.466034433
     0.943123581         0.049647102         0.799367767
     0.943123581         0.382980436         0.132701100
     0.943123581         0.382980436         0.466034433
     0.943123581         0.382980436         0.799367767
     0.943123581         0.716313769         0.132701100
     0.943123581         0.716313769         0.466034433
     0.943123581         0.716313769         0.799367767
     0.026828835         0.071195427         0.193182199
     0.026828835         0.071195427         0.526515532
     0.026828835         0.071195427         0.859848865
     0.026828835         0.404528760         0.193182199
     0.026828835         0.404528760         0.526515532
     0.026828835         0.404528760         0.859848865
     0.026828835         0.737862094         0.193182199
     0.026828835         0.737862094         0.526515532
     0.026828835         0.737862094         0.859848865
     0.360162168         0.071195427         0.193182199
     0.360162168         0.071195427         0.526515532
     0.360162168         0.071195427         0.859848865
     0.360162168         0.404528760         0.193182199
     0.360162168         0.404528760         0.526515532
     0.360162168         0.404528760         0.859848865
     0.360162168         0.737862094         0.193182199
     0.360162168         0.737862094         0.526515532
     0.360162168         0.737862094         0.859848865
     0.693495501         0.071195427         0.193182199
     0.693495501         0.071195427         0.526515532
     0.693495501         0.071195427         0.859848865
     0.693495501         0.404528760         0.193182199
     0.693495501         0.404528760         0.526515532
     0.693495501         0.404528760         0.859848865
     0.693495501         0.737862094         0.193182199
     0.693495501         0.737862094         0.526515532
     0.693495501         0.737862094         0.859848865
     0.275204787         0.247305009         0.158405821
     0.275204787         0.247305009         0.491739154
     0.275204787         0.247305009         0.825072487
     0.275204787         0.580638342         0.158405821
     0.275204787         0.580638342         0.491739154
     0.275204787         0.580638342         0.825072487
     0.275204787         0.913971676         0.158405821
     0.275204787         0.913971676         0.491739154
     0.275204787         0.913971676         0.825072487
     0.608538121         0.247305009         0.158405821
     0.608538121         0.247305009         0.491739154
     0.608538121         0.247305009         0.825072487
     0.608538121         0.580638342         0.158405821
     0.608538121         0.580638342         0.491739154
     0.608538121         0.580638342         0.825072487
     0.608538121         0.913971676         0.158405821
     0.608538121         0.913971676         0.491739154
     0.608538121         0.913971676         0.825072487
     0.941871454         0.247305009         0.158405821
     0.941871454         0.247305009         0.491739154
     0.941871454         0.247305009         0.825072487
     0.941871454         0.580638342         0.158405821
     0.941871454         0.580638342         0.491739154
     0.941871454         0.580638342         0.825072487
     0.941871454         0.913971676         0.158405821
     0.941871454         0.913971676         0.491739154
     0.941871454         0.913971676         0.825072487
     0.099235082         0.270221075         0.170877068
     0.099235082         0.270221075         0.504210402
     0.099235082         0.270221075         0.837543735
     0.099235082         0.603554409         0.170877068
     0.099235082         0.603554409         0.504210402
     0.099235082         0.603554409         0.837543735
     0.099235082         0.936887742         0.170877068
     0.099235082         0.936887742         0.504210402
     0.099235082         0.936887742         0.837543735
     0.432568416         0.270221075         0.170877068
     0.432568416         0.270221075         0.504210402
     0.432568416         0.270221075         0.837543735
     0.432568416         0.603554409         0.170877068
     0.432568416         0.603554409         0.504210402
     0.432568416         0.603554409         0.837543735
     0.432568416         0.936887742         0.170877068
     0.432568416         0.936887742         0.504210402
     0.432568416         0.936887742         0.837543735
     0.765901749         0.270221075         0.170877068
     0.765901749         0.270221075         0.504210402
     0.765901749         0.270221075         0.837543735
     0.765901749         0.603554409         0.170877068
     0.765901749         0.603554409         0.504210402
     0.765901749         0.603554409         0.837543735
     0.765901749         0.936887742         0.170877068
     0.765901749         0.936887742         0.504210402
     0.765901749         0.936887742         0.837543735
     0.187338169         0.109371331         0.289217418
     0.187338169         0.109371331         0.622550751
     0.187338169         0.109371331         0.955884084
     0.187338169         0.442704664         0.289217418
     0.187338169         0.442704664         0.622550751
     0.187338169         0.442704664         0.955884084
     0.187338169         0.776037997         0.289217418
     0.187338169         0.776037997         0.622550751
     0.187338169         0.776037997         0.955884084
     0.520671502         0.109371331         0.289217418
     0.520671502         0.109371331         0.622550751
     0.520671502         0.109371331         0.955884084
     0.520671502         0.442704664         0.289217418
     0.520671502         0.442704664         0.622550751
     0.520671502         0.442704664         0.955884084
     0.520671502         0.776037997         0.289217418
     0.520671502         0.776037997         0.622550751
     0.520671502         0.776037997         0.955884084
     0.854004835         0.109371331         0.289217418
     0.854004835         0.109371331         0.622550751
     0.854004835         0.109371331         0.955884084
     0.854004835         0.442704664         0.289217418
     0.854004835         0.442704664         0.622550751
     0.854004835         0.442704664         0.955884084
     0.854004835         0.776037997         0.289217418
     0.854004835         0.776037997         0.622550751
     0.854004835         0.776037997         0.955884084
     0.151816414         0.322257309         0.294412977
     0.151816414         0.322257309         0.627746310
     0.151816414         0.322257309         0.961079643
     0.151816414         0.655590642         0.294412977
     0.151816414         0.655590642         0.627746310
     0.151816414         0.655590642         0.961079643
     0.151816414         0.988923976         0.294412977
     0.151816414         0.988923976         0.627746310
     0.151816414         0.988923976         0.961079643
     0.485149747         0.322257309         0.294412977
     0.485149747         0.322257309         0.627746310
     0.485149747         0.322257309         0.961079643
     0.485149747         0.655590642         0.294412977
     0.485149747         0.655590642         0.627746310
     0.485149747         0.655590642         0.961079643
     0.485149747         0.988923976         0.294412977
     0.485149747         0.988923976         0.627746310
     0.485149747         0.988923976         0.961079643
     0.818483080         0.322257309         0.294412977
     0.818483080         0.322257309         0.627746310
     0.818483080         0.322257309         0.961079643
     0.818483080         0.655590642         0.294412977
     0.818483080         0.655590642         0.627746310
     0.818483080         0.655590642         0.961079643
     0.818483080         0.988923976         0.294412977
     0.818483080         0.988923976         0.627746310
     0.818483080         0.988923976         0.961079643
     0.281291904         0.078335762         0.026222933
     0.281291904         0.078335762         0.359556266
     0.281291904         0.078335762         0.692889599
     0.281291904         0.411669095         0.026222933
     0.281291904         0.411669095         0.359556266
     0.281291904         0.411669095         0.692889599
     0.281291904         0.745002428         0.026222933
     0.281291904         0.745002428         0.359556266
     0.281291904         0.745002428         0.692889599
     0.614625238         0.078335762         0.026222933
     0.614625238         0.078335762         0.359556266
     0.614625238         0.078335762         0.692889599
     0.614625238         0.411669095         0.026222933
     0.614625238         0.411669095         0.359556266
     0.614625238         0.411669095         0.692889599
     0.614625238         0.745002428         0.026222933
     0.614625238         0.745002428         0.359556266
     0.614625238         0.745002428         0.692889599
     0.947958571         0.078335762         0.026222933
     0.947958571         0.078335762         0.359556266
     0.947958571         0.078335762         0.692889599
     0.947958571         0.411669095         0.026222933
     0.947958571         0.411669095         0.359556266
     0.947958571         0.411669095         0.692889599
     0.947958571         0.745002428         0.026222933
     0.947958571         0.745002428         0.359556266
     0.947958571         0.745002428         0.692889599
     0.021456630         0.114135314         0.295684735
     0.021456630         0.114135314         0.629018068
     0.021456630         0.114135314         0.962351402
     0.021456630         0.447468647         0.295684735
     0.021456630         0.447468647         0.629018068
     0.021456630         0.447468647         0.962351402
     0.021456630         0.780801980         0.295684735
     0.021456630         0.780801980         0.629018068
     0.021456630         0.780801980         0.962351402
     0.354789963         0.114135314         0.295684735
     0.354789963         0.114135314         0.629018068
     0.354789963         0.114135314         0.962351402
     0.354789963         0.447468647         0.295684735
     0.354789963         0.447468647         0.629018068
     0.354789963         0.447468647         0.962351402
     0.354789963         0.780801980         0.295684735
     0.354789963         0.780801980         0.629018068
     0.354789963         0.780801980         0.962351402
     0.688123296         0.114135314         0.295684735
     0.688123296         0.114135314         0.629018068
     0.688123296         0.114135314         0.962351402
     0.688123296         0.447468647         0.295684735
     0.688123296         0.447468647         0.629018068
     0.688123296         0.447468647         0.962351402
     0.688123296         0.780801980         0.295684735
     0.688123296         0.780801980         0.629018068
     0.688123296         0.780801980         0.962351402
     0.189644480         0.101629767         0.173782253
     0.189644480         0.101629767         0.507115586
     0.189644480         0.101629767         0.840448919
     0.189644480         0.434963100         0.173782253
     0.189644480         0.434963100         0.507115586
     0.189644480         0.434963100         0.840448919
     0.189644480         0.768296433         0.173782253
     0.189644480         0.768296433         0.507115586
     0.189644480         0.768296433         0.840448919
     0.522977814         0.101629767         0.173782253
     0.522977814         0.101629767         0.507115586
     0.522977814         0.101629767         0.840448919
     0.522977814         0.434963100         0.173782253
     0.522977814         0.434963100         0.507115586
     0.522977814         0.434963100         0.840448919
     0.522977814         0.768296433         0.173782253
     0.522977814         0.768296433         0.507115586
     0.522977814         0.768296433         0.840448919
     0.856311147         0.101629767         0.173782253
     0.856311147         0.101629767         0.507115586
     0.856311147         0.101629767         0.840448919
     0.856311147         0.434963100         0.173782253
     0.856311147         0.434963100         0.507115586
     0.856311147         0.434963100         0.840448919
     0.856311147         0.768296433         0.173782253
     0.856311147         0.768296433         0.507115586
     0.856311147         0.768296433         0.840448919
     0.098852171         0.070007266         0.015600533
     0.098852171         0.070007266         0.348933867
     0.098852171         0.070007266         0.682267200
     0.098852171         0.403340600         0.015600533
     0.098852171         0.403340600         0.348933867
     0.098852171         0.403340600         0.682267200
     0.098852171         0.736673933         0.015600533
     0.098852171         0.736673933         0.348933867
     0.098852171         0.736673933         0.682267200
     0.432185504         0.070007266         0.015600533
     0.432185504         0.070007266         0.348933867
     0.432185504         0.070007266         0.682267200
     0.432185504         0.403340600         0.015600533
     0.432185504         0.403340600         0.348933867
     0.432185504         0.403340600         0.682267200
     0.432185504         0.736673933         0.015600533
     0.432185504         0.736673933         0.348933867
     0.432185504         0.736673933         0.682267200
     0.765518838         0.070007266         0.015600533
     0.765518838         0.070007266         0.348933867
     0.765518838         0.070007266         0.682267200
     0.765518838         0.403340600         0.015600533
     0.765518838         0.403340600         0.348933867
     0.765518838         0.403340600         0.682267200
     0.765518838         0.736673933         0.015600533
     0.765518838         0.736673933         0.348933867
     0.765518838         0.736673933         0.682267200
     0.107964487         0.055648994         0.128758327
     0.107964487         0.055648994         0.462091660
     0.107964487         0.055648994         0.795424994
     0.107964487         0.388982327         0.128758327
     0.107964487         0.388982327         0.462091660
     0.107964487         0.388982327         0.795424994
     0.107964487         0.722315660         0.128758327
     0.107964487         0.722315660         0.462091660
     0.107964487         0.722315660         0.795424994
     0.441297821         0.055648994         0.128758327
     0.441297821         0.055648994         0.462091660
     0.441297821         0.055648994         0.795424994
     0.441297821         0.388982327         0.128758327
     0.441297821         0.388982327         0.462091660
     0.441297821         0.388982327         0.795424994
     0.441297821         0.722315660         0.128758327
     0.441297821         0.722315660         0.462091660
     0.441297821         0.722315660         0.795424994
     0.774631154         0.055648994         0.128758327
     0.774631154         0.055648994         0.462091660
     0.774631154         0.055648994         0.795424994
     0.774631154         0.388982327         0.128758327
     0.774631154         0.388982327         0.462091660
     0.774631154         0.388982327         0.795424994
     0.774631154         0.722315660         0.128758327
     0.774631154         0.722315660         0.462091660
     0.774631154         0.722315660         0.795424994
     0.278161110         0.278950112         0.051602745
     0.278161110         0.278950112         0.384936078
     0.278161110         0.278950112         0.718269412
     0.278161110         0.612283446         0.051602745
     0.278161110         0.612283446         0.384936078
     0.278161110         0.612283446         0.718269412
     0.278161110         0.945616779         0.051602745
     0.278161110         0.945616779         0.384936078
     0.278161110         0.945616779         0.718269412
     0.611494443         0.278950112         0.051602745
     0.611494443         0.278950112         0.384936078
     0.611494443         0.278950112         0.718269412
     0.611494443         0.612283446         0.051602745
     0.611494443         0.612283446         0.384936078
     0.611494443         0.612283446         0.718269412
     0.611494443         0.945616779         0.051602745
     0.611494443         0.945616779         0.384936078
     0.611494443         0.945616779         0.718269412
     0.944827777         0.278950112         0.051602745
     0.944827777         0.278950112         0.384936078
     0.944827777         0.278950112         0.718269412
     0.944827777         0.612283446         0.051602745
     0.944827777         0.612283446         0.384936078
     0.944827777         0.612283446         0.718269412
     0.944827777         0.945616779         0.051602745
     0.944827777         0.945616779         0.384936078
     0.944827777         0.945616779         0.718269412
     0.020345810         0.246605645         0.320105444
     0.020345810         0.246605645         0.653438778
     0.020345810         0.246605645         0.986772111
     0.020345810         0.579938978         0.320105444
     0.020345810         0.579938978         0.653438778
     0.020345810         0.579938978         0.986772111
     0.020345810         0.913272312         0.320105444
     0.020345810         0.913272312         0.653438778
     0.020345810         0.913272312         0.986772111
     0.353679143         0.246605645         0.320105444
     0.353679143         0.246605645         0.653438778
     0.353679143         0.246605645         0.986772111
     0.353679143         0.579938978         0.320105444
     0.353679143         0.579938978         0.653438778
     0.353679143         0.579938978         0.986772111
     0.353679143         0.913272312         0.320105444
     0.353679143         0.913272312         0.653438778
     0.353679143         0.913272312         0.986772111
     0.687012477         0.246605645         0.320105444
     0.687012477         0.246605645         0.653438778
     0.687012477         0.246605645         0.986772111
     0.687012477         0.579938978         0.320105444
     0.687012477         0.579938978         0.653438778
     0.687012477         0.579938978         0.986772111
     0.687012477         0.913272312         0.320105444
     0.687012477         0.913272312         0.653438778
     0.687012477         0.913272312         0.986772111
     0.192516174         0.225653314         0.006326602
     0.192516174         0.225653314         0.339659935
     0.192516174         0.225653314         0.672993268
     0.192516174         0.558986647         0.006326602
     0.192516174         0.558986647         0.339659935
     0.192516174         0.558986647         0.672993268
     0.192516174         0.892319980         0.006326602
     0.192516174         0.892319980         0.339659935
     0.192516174         0.892319980         0.672993268
     0.525849508         0.225653314         0.006326602
     0.525849508         0.225653314         0.339659935
     0.525849508         0.225653314         0.672993268
     0.525849508         0.558986647         0.006326602
     0.525849508         0.558986647         0.339659935
     0.525849508         0.558986647         0.672993268
     0.525849508         0.892319980         0.006326602
     0.525849508         0.892319980         0.339659935
     0.525849508         0.892319980         0.672993268
     0.859182841         0.225653314         0.006326602
     0.859182841         0.225653314         0.339659935
     0.859182841         0.225653314         0.672993268
     0.859182841         0.558986647         0.006326602
     0.859182841         0.558986647         0.339659935
     0.859182841         0.558986647         0.672993268
     0.859182841         0.892319980         0.006326602
     0.859182841         0.892319980         0.339659935
     0.859182841         0.892319980         0.672993268
     0.182552225         0.223642674         0.223516955
     0.182552225         0.223642674         0.556850288
     0.182552225         0.223642674         0.890183621
     0.182552225         0.556976007         0.223516955
     0.182552225         0.556976007         0.556850288
     0.182552225         0.556976007         0.890183621
     0.182552225         0.890309340         0.223516955
     0.182552225         0.890309340         0.556850288
     0.182552225         0.890309340         0.890183621
     0.515885558         0.223642674         0.223516955
     0.515885558         0.223642674         0.556850288
     0.515885558         0.223642674         0.890183621
     0.515885558         0.556976007         0.223516955
     0.515885558         0.556976007         0.556850288
     0.515885558         0.556976007         0.890183621
     0.515885558         0.890309340         0.223516955
     0.515885558         0.890309340         0.556850288
     0.515885558         0.890309340         0.890183621
     0.849218891         0.223642674         0.223516955
     0.849218891         0.223642674         0.556850288
     0.849218891         0.223642674         0.890183621
     0.849218891         0.556976007         0.223516955
     0.849218891         0.556976007         0.556850288
     0.849218891         0.556976007         0.890183621
     0.849218891         0.890309340         0.223516955
     0.849218891         0.890309340         0.556850288
     0.849218891         0.890309340         0.890183621
     0.020141235         0.217561116         0.217083700
     0.020141235         0.217561116         0.550417033
     0.020141235         0.217561116         0.883750366
     0.020141235         0.550894449         0.217083700
     0.020141235         0.550894449         0.550417033
     0.020141235         0.550894449         0.883750366
     0.020141235         0.884227782         0.217083700
     0.020141235         0.884227782         0.550417033
     0.020141235         0.884227782         0.883750366
     0.353474568         0.217561116         0.217083700
     0.353474568         0.217561116         0.550417033
     0.353474568         0.217561116         0.883750366
     0.353474568         0.550894449         0.217083700
     0.353474568         0.550894449         0.550417033
     0.353474568         0.550894449         0.883750366
     0.353474568         0.884227782         0.217083700
     0.353474568         0.884227782         0.550417033
     0.353474568         0.884227782         0.883750366
     0.686807902         0.217561116         0.217083700
     0.686807902         0.217561116         0.550417033
     0.686807902         0.217561116         0.883750366
     0.686807902         0.550894449         0.217083700
     0.686807902         0.550894449         0.550417033
     0.686807902         0.550894449         0.883750366
     0.686807902         0.884227782         0.217083700
     0.686807902         0.884227782         0.550417033
     0.686807902         0.884227782         0.883750366
     0.267437084         0.331149929         0.258870193
     0.267437084         0.331149929         0.592203527
     0.267437084         0.331149929         0.925536860
     0.267437084         0.664483262         0.258870193
     0.267437084         0.664483262         0.592203527
     0.267437084         0.664483262         0.925536860
     0.267437084         0.997816595         0.258870193
     0.267437084         0.997816595         0.592203527
     0.267437084         0.997816595         0.925536860
     0.600770417         0.331149929         0.258870193
     0.600770417         0.331149929         0.592203527
     0.600770417         0.331149929         0.925536860
     0.600770417         0.664483262         0.258870193
     0.600770417         0.664483262         0.592203527
     0.600770417         0.664483262         0.925536860
     0.600770417         0.997816595         0.258870193
     0.600770417         0.997816595         0.592203527
     0.600770417         0.997816595         0.925536860
     0.934103750         0.331149929         0.258870193
     0.934103750         0.331149929         0.592203527
     0.934103750         0.331149929         0.925536860
     0.934103750         0.664483262         0.258870193
     0.934103750         0.664483262         0.592203527
     0.934103750         0.664483262         0.925536860
     0.934103750         0.997816595         0.258870193
     0.934103750         0.997816595         0.592203527
     0.934103750         0.997816595         0.925536860
     0.024875038         0.165628227         0.091166823
     0.024875038         0.165628227         0.424500156
     0.024875038         0.165628227         0.757833489
     0.024875038         0.498961561         0.091166823
     0.024875038         0.498961561         0.424500156
     0.024875038         0.498961561         0.757833489
     0.024875038         0.832294894         0.091166823
     0.024875038         0.832294894         0.424500156
     0.024875038         0.832294894         0.757833489
     0.358208371         0.165628227         0.091166823
     0.358208371         0.165628227         0.424500156
     0.358208371         0.165628227         0.757833489
     0.358208371         0.498961561         0.091166823
     0.358208371         0.498961561         0.424500156
     0.358208371         0.498961561         0.757833489
     0.358208371         0.832294894         0.091166823
     0.358208371         0.832294894         0.424500156
     0.358208371         0.832294894         0.757833489
     0.691541704         0.165628227         0.091166823
     0.691541704         0.165628227         0.424500156
     0.691541704         0.165628227         0.757833489
     0.691541704         0.498961561         0.091166823
     0.691541704         0.498961561         0.424500156
     0.691541704         0.498961561         0.757833489
     0.691541704         0.832294894         0.091166823
     0.691541704         0.832294894         0.424500156
     0.691541704         0.832294894         0.757833489
