TITL Boron.vasp  0.003803410145805902  86.90769460537335  -79.81094744926294 0 0 12 (R-3m)  n - 1
REM
REM
CELL 1.54180    5.033885    5.033885    5.033885    58.406383    58.406383    58.406383    
LATT -1
SFAC B  
B  1  0.009839369621636247  0.6549754020026393  0.00983936974179974  1.0  
B  1  0.009839369676620545  0.009839369676620713  0.654975402064103  1.0  
B  1  0.6549754020026396  0.009839369621635818  0.009839369741799636  1.0  
B  1  0.34502459799736046  0.9901606303783635  0.9901606302582001  1.0  
B  1  0.9901606303783635  0.34502459799736  0.9901606302581999  1.0  
B  1  0.9901606303233796  0.990160630323379  0.3450245979358968  1.0  
B  1  0.22128768127826542  0.6308628613384931  0.2212876813654662  1.0  
B  1  0.2212876814260596  0.22128768142605978  0.6308628610549423  1.0  
B  1  0.6308628613384936  0.22128768127826534  0.22128768136546595  1.0  
B  1  0.3691371386615061  0.778712318721734  0.7787123186345336  1.0  
B  1  0.778712318721734  0.36913713866150627  0.7787123186345333  1.0  
B  1  0.7787123185739403  0.7787123185739397  0.36913713894505745  1.0  
END
