TITL Fe3B.vasp  10.002244115509056  151.5393775902861  -204.53336865701107 0 0 16 (Pnma)  n - 1
REM
REM
CELL 1.54180    4.297094    5.406455    6.52286    89.999777    90.000541    89.998888    
LATT -1
SFAC Fe  B  
Fe  1  0.6075347798105522  0.9815492593962292  0.25000003287748146  1.0  
Fe  1  0.6456004665072981  0.6765798824711399  0.5545382458110364  1.0  
Fe  1  0.6456004419090217  0.6765798792595127  0.9454617937230523  1.0  
Fe  1  0.8543994552078265  0.17657982638219527  0.5545382417669633  1.0  
Fe  1  0.8543994010328909  0.17657986777283782  0.9454617801452478  1.0  
Fe  1  0.8924651596274099  0.48154915360585177  0.25000000057517685  1.0  
Fe  1  0.1075348403725897  0.5184508463941496  0.7499999994248252  1.0  
Fe  1  0.145600598967108  0.8234201322271638  0.05453821985475428  1.0  
Fe  1  0.14560054479217321  0.8234201736178063  0.4454617582330393  1.0  
Fe  1  0.35439955809097745  0.32342012074048887  0.05453820627694962  1.0  
Fe  1  0.3543995334927012  0.3234201175288615  0.4454617541889659  1.0  
Fe  1  0.39246522018944735  0.018450740603772355  0.7499999671225211  1.0  
B  1  0.5762480081657204  0.38592564566770543  0.7500000115685325  1.0  
B  1  0.923752033874023  0.8859257103040094  0.7499999797143266  1.0  
B  1  0.07624796612597634  0.1140742896959924  0.2500000202856761  1.0  
B  1  0.4237519918342792  0.6140743543322962  0.24999998843147003  1.0  
END
