TITL Fe2B.vasp  0.0002566358161136439  54.41664847540053  -73.83107174362857 0 0 6 (I4/mcm)  n - 1
REM
REM
CELL 1.54180    4.167199    4.167199    4.167199    104.717243    104.717243    119.465667    
LATT -1
SFAC Fe  B  
Fe  1  0.16737721297498961  0.6673772129749895  0.8347544259499792  1.0  
Fe  1  0.3326227870250104  0.16737721297498956  0.5  1.0  
Fe  1  0.8326227870250104  0.33262278702501036  0.16524557405002072  1.0  
Fe  1  0.6673772129749899  0.8326227870250105  0.5  1.0  
B  1  0.2500000000000001  0.25000000000000006  3.897161470309779e-17  1.0  
B  1  0.7500000000000001  0.75  8.754918753369058e-17  1.0  
END
