Fe B 
 1.0000000000000000
    12.2219249733610003    0.0000000000000000    0.0000000000000000
     0.0000000000000000   17.0212305026322355    0.0000000000000000
     0.0000000000000000    0.0000000000000000   52.2409264374338704
 Fe  B  
 288 1152
Cartesian
 -86.8858119038019652 55.8641560311089762 -25.2441588223782674
 -86.8627476535853731 55.8760473917862939 -17.7351081670196997
 -86.8566976976362497 55.8940464807327686 -10.2189668728789194
 -86.8858590161326845 64.3748600146333985 -25.2440985885288036
 -86.8627549392253542 64.3866866069449344 -17.7351427113983142
 -86.8567094307860827 64.4046335808857719 -10.2188894908550001
 -83.8937139979542792 55.8918053783883408 -25.2154714015843240
 -83.8088392459982572 55.8765428796586221 -17.7329334831722925
 -83.8117000140193085 55.8820075085442767 -10.1908190692157756
 -83.8938881268456669 64.4024329219044773 -25.2154262971652336
 -83.8088141486646236 64.3871859291676003 -17.7329509809962218
 -83.8117029246984941 64.3926101377199558 -10.1907879790100893
 -80.7319062786981476 55.9240361353283433 -25.2679677892019683
 -80.7539715375422986 55.8767073692703136 -17.7353942261841127
 -80.7684391859005046 55.8716446353049250 -10.2231874611168276
 -80.7319544420848274 64.4347786646220158 -25.2679042359367507
 -80.7539907978384690 64.3872962062395544 -17.7354256906332992
 -80.7684021204391200 64.3822504743882718 -10.2231470998489531
 -77.6856873638249112 55.9062807349730591 -25.2510685315611063
 -77.6970370117892628 55.8762709336745189 -17.7374157811990152
 -77.6954601658421495 55.8768518702738746 -10.2574002834691740
 -77.6857524948171800 64.4170008022719003 -25.2511469435023486
 -77.6970859994479781 64.3868387001129463 -17.7374358423384244
 -77.6954289985498576 64.3874372732602325 -10.2573341607380151
 -86.8379354050886434 58.7498483432648939 -25.2721751775627332
 -86.8620748828703171 58.7134364201845003 -17.7355147371861221
 -86.8437633098647126 58.7239703994122522 -10.2221398390826348
 -86.8379780826536347 67.2604825973067477 -25.2722791277228112
 -86.8620810293890173 67.2240786338869327 -17.7355461982128908
 -86.8437775393694409 67.2345256000403424 -10.2221087940064717
 -83.8091057456090454 58.7115456363966217 -25.2909061934498745
 -83.8083224281351562 58.7125814157845767 -17.7335803232421014
 -83.8086338894343612 58.7133983177791947 -10.1701491152863994
 -83.8091247669050006 67.2222364516107831 -25.2908918205736555
 -83.8083387690231092 67.2232222064881171 -17.7336039399983889
 -83.8086521139841096 67.2239504926247378 -10.1701625776900304
 -80.7798973678205812 58.6743393594376954 -25.2727192495636466
 -80.7545893545370319 58.7116932884577736 -17.7353725336949282
 -80.7735544660512375 58.7025393503112554 -10.2221640863697587
 -80.7799111538626278 67.1850568476625654 -25.2726350503599022
 -80.7546603813344461 67.2223238661947846 -17.7353660930232024
 -80.7735203390465699 67.2130835414525194 -10.2221498436486566
 -77.6979316185422704 58.7128952426222810 -25.2461966888551110
 -77.6973777947358144 58.7125562609530220 -17.7373945111177740
 -77.6976634912675763 58.7132042405079915 -10.2576705736360907
 -77.6980260146700203 67.2234425237367788 -25.2461803981081410
 -77.6973995533634394 67.2231502183304457 -17.7373736528240507
 -77.6976345240464497 67.2237568233900049 -10.2576352522706031
 -86.8844955365407969 61.5006675508434171 -25.2670146594024985
 -86.8625953068196992 61.5484397413914053 -17.7354188921391263
 -86.8487873847260232 61.5549639040589014 -10.2233507076883505
 -86.8845024685475522 70.0111823382425342 -25.2670985207949883
 -86.8626266463823526 70.0590596845578943 -17.7354238296305660
 -86.8487940668415916 70.0655440324723031 -10.2233989993374461
 -83.7248892157564910 61.5324138983362090 -25.2151799394259299
 -83.8076952871754202 61.5487185897142197 -17.7328746710111638
 -83.8050748224495834 61.5447242911941998 -10.1909631266724254
 -83.7247755215852578 70.0430378004155756 -25.2152663750265127
 -83.8077077615869968 70.0593283599975365 -17.7328871081351274
 -83.8050740061126049 70.0552868400280460 -10.1909857596287949
 -80.7316900679404483 61.5607213813990484 -25.2447080116800109
 -80.7538999788527292 61.5492314077531262 -17.7350752253752297
 -80.7605270753086870 61.5325055789655835 -10.2188662794436613
 -80.7317062364304405 70.0714724424907729 -25.2447062044425117
 -80.7539050038200656 70.0598855967759704 -17.7350616357532651
 -80.7605369276453047 70.0430637092818813 -10.2188857370757358
 -77.7105034757704374 61.5180981632013939 -25.2519718421407120
 -77.6976947875075439 61.5489437930877230 -17.7374317153380652
 -77.6999650239056194 61.5495229555602776 -10.2573782847116792
 -77.7103940348015385 70.0286312874270180 -25.2519141801471498
 -77.6977152618838574 70.0595779638235712 -17.7374167506838312
 -77.6999654726454736 70.0601105430873190 -10.2573992483910619
 -88.4008879707491246 54.4493080099451490 -23.6844745261714671
 -88.3886506148494249 54.4577617522193975 -16.1750977544603707
 -88.3878299192833481 54.4771460519252173 -8.6954092648543817
 -88.4008750243530415 62.9598942111082494 -23.6844272039522110
 -88.3886507642026800 62.9683940317139843 -16.1751313005503654
 -88.3878210023185176 62.9877412048174889 -8.6953197020382511
 -85.3421608990866218 54.4481140034274773 -23.6654087264292308
 -85.3336939429388934 54.4579902814063601 -16.1706035882604517
 -85.3474508203891560 54.4937151191197628 -8.6437889187728025
 -85.3422113356426308 62.9587986910833806 -23.6652832318322446
 -85.3336829542677293 62.9686109598427137 -16.1706426710790829
 -85.3474464151876759 63.0043441992492106 -8.6437581054687698
 -82.2750475054088355 54.4658005633178277 -23.6658714442487828
 -82.2828790613949934 54.4570972419632682 -16.1706014573749108
 -82.2697452275291425 54.4229234110477051 -8.6434567480264501
 -82.2751004219948925 62.9764356657143196 -23.6657660438320043
 -82.2828717646338959 62.9676975869934878 -16.1706431789018126
 -82.2697214161574379 62.9335931336172578 -8.6434307094376184
 -79.2165817181801799 54.4647777598328915 -23.6850117972711232
 -79.2279071646832165 54.4571409111004101 -16.1751185089234326
 -79.2297543205393424 54.4389736602959502 -8.6953567516720778
 -79.2166299908393086 62.9753859657094424 -23.6850072690394278
 -79.2279138123019777 62.9677446226863395 -16.1751530665474021
 -79.2296942633496144 62.9495915694289749 -8.6952787591841432
 -88.3841499108126669 57.2985701848564304 -23.6895615928484666
 -88.3885666200062872 57.2948004365072237 -16.1755853411173582
 -88.4084654268762904 57.3192684149829219 -8.7044783143187647
 -88.3841880595094551 65.8091974209028479 -23.6895210519163264
 -88.3885487901817868 65.8054061013054792 -16.1756146451485243
 -88.4084570067288098 65.8298489617040445 -8.7044014460416701
 -85.3509416899068185 57.2988680508471973 -23.6821535509086232
 -85.3334024070296948 57.2950815261827771 -16.1706167160476433
 -85.3400900119564625 57.3312987463908215 -8.5629154893715871
 -85.3509775887394539 65.8095443832944227 -23.6821150329285040
 -85.3333613305499199 65.8056818522016016 -16.1706686872462946
 -85.3401066748591290 65.8418889207569862 -8.5628723228298025
 -82.2989851435022217 57.2965864599117438 -23.6953326916559348
 -82.2836663210183445 57.2943911700153237 -16.1709972163943583
 -82.3033467148705711 57.3120455139519436 -8.6109732352489186
 -82.2990896355352959 65.8072313853094073 -23.6953015066058761
 -82.2836698570119580 65.8049655342083639 -16.1710415022833303
 -82.3033354125765584 65.8226398667823247 -8.6109524442129555
 -79.2229386317410587 57.2989337482532477 -23.6978284180115963
 -79.2277367218988076 57.2940034378806757 -16.1756482279727685
 -79.2265029888273489 57.2687171925426384 -8.7047805983491404
 -79.2230225341865122 65.8096174246309147 -23.6977988760068357
 -79.2277713011139184 65.8045759012516811 -16.1756643720760493
 -79.2264290636757949 65.7792840391174138 -8.7047325259521724
 -88.3947119145427962 60.1257963328145451 -23.6977130547546899
 -88.3888180034189048 60.1314946916500901 -16.1756671225036897
 -88.3911202119244308 60.1577553223629593 -8.7047336895666696
 -88.3947240619153121 68.6364368627839383 -23.6977528021356356
 -88.3888033639776012 68.6421022619002770 -16.1756643703174419
 -88.3911613458752043 68.6683579215307276 -8.7047222313797619
 -85.3181756503221607 60.1274012813040457 -23.6947370315964179
 -85.3329288943372575 60.1312181545299680 -16.1709472446114653
 -85.3149554364715215 60.1152555139409728 -8.6112972600345312
 -85.3182071809685709 68.6380175779953419 -23.6948180298211533
 -85.3328992844415239 68.6418264072270006 -16.1709472327297448
 -85.3150102715656686 68.6258555808342408 -8.6113364680503821
 -82.2663074550192448 60.1253289860628470 -23.6824022165416999
 -82.2832120955661708 60.1305333377305047 -16.1706208909988796
 -82.2777211962537365 60.0957401628742716 -8.5629735650710384
 -82.2663768377723272 68.6360089523211627 -23.6823687573208872
 -82.2832207207177646 68.6411427962926410 -16.1706060210764946
 -82.2777242903086261 68.6063060761074155 -8.5629384849478232
 -79.2337320552102540 60.1261640222206424 -23.6901374139646954
 -79.2280052951571463 60.1306767254908223 -16.1755415552064186
 -79.2095331560046532 60.1070332318494067 -8.7043854783437471
 -79.2338043250586992 68.6369129400244162 -23.6901504165857943
 -79.2280309563360419 68.6412817815992327 -16.1755188423808818
 -79.2095022548468819 68.6176101558254601 -8.7043820219581800
 -86.8695090902853195 54.4510003780041671 -21.4888823844807995
 -86.8546585554487649 54.4589426813334399 -13.9791442527660266
 -86.9491102822231170 54.5396115408367237 -6.4314328365495417
 -86.8695703625088669 62.9616133483395330 -21.4889077009549929
 -86.8546776542492438 62.9695760663932589 -13.9791648157100461
 -86.9490461964704906 63.0500981423118958 -6.4313543934126489
 -83.8081018969867984 54.4569847334179045 -21.4814616700167242
 -83.8083636725836527 54.4575979130204431 -13.9701494417039420
 -83.8084382894821118 54.4587109905350815 -6.3432596718093155
 -83.8081607455617501 62.9675847499313619 -21.4814494895285115
 -83.8083781252980913 62.9682195444948576 -13.9701767405469361
 -83.8084479930481905 62.9693851370590778 -6.3432784128294424
 -80.7477612567976735 54.4629123877913557 -21.4890540049063965
 -80.7619737441100227 54.4562492177569339 -13.9792161241506907
 -80.6685900396664124 54.3771245113686490 -6.4313046231250270
 -80.7476962730098933 62.9735160683159947 -21.4890565501222603
 -80.7619567214553911 62.9668433188658980 -13.9792465113941251
 -80.6685340107411548 62.8876419982471475 -6.4311690627262665
 -77.6978480846926516 54.4570909555933369 -21.4912795347046952
 -77.6973706590603257 54.4575868067997249 -13.9880857011823885
 -77.6975485468292533 54.4565130199537393 -6.4636660757347997
 -77.6978890441546355 62.9676997857591658 -21.4913257184912752
 -77.6973471832105389 62.9681823181871181 -13.9881078931244627
 -77.6973815778145251 62.9668841795370042 -6.4634197542920040
 -86.8641592904793498 57.2956468773670125 -21.4914499406460422
 -86.8550250078916832 57.2959746226879574 -13.9795284330556697
 -87.0782906550391402 57.4616258104259572 -6.5403909750121425
 -86.8642751696218909 65.8062889556261581 -21.4914537867025928
 -86.8550120874036224 65.8065914505856711 -13.9795505171954364
 -87.0782658653466228 65.9723176433860203 -6.5403186524996002
 -83.8134799751752837 57.2964614875305500 -21.4901884189871453
 -83.8081393508192889 57.2940167103329898 -13.9703358551224834
 -83.7117633987771654 57.1610995868405780 -6.4254836833994355
 -83.8135369575545894 65.8071637207331861 -21.4901654830021158
 -83.8081456034655190 65.8046313657975048 -13.9703753289834882
 -83.7117875244043290 65.6717944698062581 -6.4254631397472570
 -80.7525530794528947 57.2934313153732830 -21.4945113026309222
 -80.7626301010941603 57.2931118724097388 -13.9796120353154532
 -80.7109335350011463 57.1917191354914607 -6.4824762804402187
 -80.7525426071670580 65.8040623910866742 -21.4944961762023645
 -80.7626362112805083 65.8037086567165517 -13.9796309735517887
 -80.7108929759133389 65.7023067120015725 -6.4824926046776561
 -77.6971408704187354 57.2943627105372002 -21.4933863581018159
 -77.6969860388250595 57.2941456891458785 -13.9887887472336185
 -77.7042794920062363 57.2836482945699430 -6.5141000625881373
 -77.6972171575187360 65.8050188593098824 -21.4934204903198101
 -77.6969718805708425 65.8047482389555682 -13.9887887511083679
 -77.7042418356585216 65.7942272162955248 -6.5140285838460601
 -86.8645246612778266 60.1310378958942735 -21.4943356152811162
 -86.8540279320563258 60.1328302193934192 -13.9795150765610252
 -86.9077517614055353 60.2362193363463021 -6.4834984110839207
 -86.8646144855598692 68.6416650276496512 -21.4943515868111703
 -86.8540027108396799 68.6434074597300281 -13.9795162154088253
 -86.9078333859915375 68.7468983005802414 -6.4835201687868036
 -83.8027245085662145 60.1279917483807296 -21.4902009745084079
 -83.8086084008859871 60.1319203245562335 -13.9703306414338169
 -83.9087841649297701 60.2675643957696963 -6.4275281461561189
 -83.8027591384706483 68.6386728607282919 -21.4901809869709979
 -83.8086054167629726 68.6425109457971701 -13.9703346749585080
 -83.9089521206467168 68.7780277097331378 -6.4275719672724030
 -80.7527669496213463 60.1291829446060291 -21.4918102132540128
 -80.7616384469428397 60.1298775177878966 -13.9795740908664801
 -80.5410051999600682 59.9646283526621957 -6.5404582955466788
 -80.7527643045623904 68.6397944728939962 -21.4917963735087945
 -80.7616546696460489 68.6404657182796427 -13.9795600857560487
 -80.5408629876182829 68.4751492306100147 -6.5404637449800740
 -77.6987545292063544 60.1303879998453539 -21.4934407276431472
 -77.6976391221715375 60.1317083216264834 -13.9887489606086728
 -77.6920795674003415 60.1417317571561938 -6.5143937714572049
 -77.6987623841029063 68.6410191330922714 -21.4934166643415168
 -77.6976419590145753 68.6422962658073601 -13.9887298515420397
 -77.6921032603029573 68.6524896753136176 -6.5143720833065810
 -88.3904509675175234 55.8025499597461234 -27.4847788692309578
 -88.3910174304735534 55.8748542432904713 -19.9302518932421400
 -88.3799606794069206 55.8786759323186430 -12.4279571995942604
 -88.3903853325170843 64.3131300384982580 -27.4848758196316112
 -88.3911266742870794 64.3854601546086940 -19.9303336279386052
 -88.3799559633390714 64.3892725107607333 -12.4279364019273171
 -85.4468058124030279 55.7347374258129591 -27.4425185406964616
 -85.3384606287813625 55.8744498130079208 -19.9266905228044422
 -85.3284215561298822 55.8815261169703703 -12.4057665734297178
 -85.4468562137042369 64.2454433711429402 -27.4424111776090207
 -85.3385144581611286 64.3850665914133629 -19.9266944936465045
 -85.3284349300572984 64.3921305465340765 -12.4057612028949134
 -82.5033165702035376 55.8807573716314749 -27.3159374187508384
 -82.2812491252527849 55.8756876234068400 -19.9274294358209971
 -82.2904042916588878 55.8737555507116639 -12.4078929268383114
 -82.5032971300028208 64.3912068719598807 -27.3157258503559781
 -82.2812141178908405 64.3863181522130787 -19.9274205031710423
 -82.2904051423560645 64.3843609893691564 -12.4078996509836408
 -79.0929978165886354 55.9016527031069117 -27.4770360319841735
 -79.2241491928513852 55.8756823957662974 -19.9304932098747933
 -79.2361444150035794 55.8731357413630292 -12.4284214145069480
 -79.0932088965842013 64.4123746415034901 -27.4771114939034220
 -79.2241526478750728 64.3862935271188377 -19.9305731865435334
 -79.2361107739569661 64.3837325727483432 -12.4284154301553986
 -88.3661912000412428 58.6576272450113549 -27.3816193199258890
 -88.3909523794311127 58.7126192136353637 -19.9306197856330698
 -88.3821028883984070 58.7166496495091863 -12.4300298238290754
 -88.3661599211505262 67.1683534277472916 -27.3816304042463798
 -88.3910636676816068 67.2232505239553291 -19.9306310014575239
 -88.3820900457714913 67.2272109402849480 -12.4300113885082908
 -85.3623973364111777 58.6962345201507176 -27.5058771040965304
 -85.3362214116835958 58.7129883656027971 -19.9284125959314657
 -85.3219894530752327 58.7147782975540764 -12.4050412682190654
 -85.3624700820281248 67.2067243284464837 -27.5058989545614807
 -85.3362972751762783 67.2236424387736093 -19.9284397764383385
 -85.3219961327108365 67.2253409555372770 -12.4050493385710983
 -82.2571146170365353 58.7272713338819656 -27.5057808673327919
 -82.2802460214317932 58.7118922093354243 -19.9283114556011647
 -82.2948899424353471 58.7115159452240434 -12.4051124241221071
 -82.2570140394330451 67.2378453613964808 -27.5056078356765816
 -82.2801886628226669 67.2225899194857419 -19.9283176403632041
 -82.2948948276062566 67.2220772315845352 -12.4051167539922691
 -79.2522173415987652 58.7668955443927601 -27.3830190155377338
 -79.2263114641083206 58.7124737098543079 -19.9305741782895467
 -79.2346257676407077 58.7096016332520350 -12.4300839745176575
 -79.2526115070120483 67.2775138810907549 -27.3829540850738020
 -79.2262888680610047 67.2231462729899931 -19.9305148074598470
 -79.2346076134689525 67.2201603260772913 -12.4300665061473055
 -88.5209336486609715 61.5257464294123793 -27.4750817481236602
 -88.3930716818303637 61.5492645682625081 -19.9306365395762874
 -88.3806748412480516 61.5530924449034700 -12.4283471766249711
 -88.5210558442819178 70.0362476762556128 -27.4751972426311220
 -88.3930796784414241 70.0599087945158203 -19.9306053536096037
 -88.3806748095982186 70.0636691509925527 -12.4283611474520370
 -85.1142386716285984 61.5425836430143960 -27.3172372416829106
 -85.3352709814929824 61.5490834475077975 -19.9275311262885317
 -85.3263724882911703 61.5525833043593025 -12.4078346067842809
 -85.1139834474809334 70.0530183751579472 -27.3174654693297931
 -85.3352799515682534 70.0597133581681675 -19.9275129746085433
 -85.3263594167420507 70.0631528686635647 -12.4078538275378119
 -82.1724741585144045 61.6887673208390765 -27.4432104701784247
 -82.2781041125828239 61.5504302765928202 -19.9267243479016081
 -82.2883345516058569 61.5447762140149734 -12.4058342350806790
 -82.1725218002511184 70.1993712469424338 -27.4431900974188139
 -82.2780595239249237 70.0610945437050106 -19.9267287777174609
 -82.2883349724928763 70.0553381636379839 -12.4058404507952424
 -79.2293189248897676 61.6234112234821865 -27.4849419731465261
 -79.2261207913382748 61.5501215683524308 -19.9304250589121494
 -79.2368330904568126 61.5475035102807766 -12.4279431552575605
 -79.2291789776758861 70.1339466122482662 -27.4846921932263015
 -79.2261350645562601 70.0607961529321699 -19.9303792265640531
 -79.2368515486891027 70.0580765078392886 -12.4279452637960759
 -86.8676863438044364 55.8695026771355572 -23.0816692128505032
 -86.8612985109756153 55.8766540511017382 -15.5762648170358879
 -86.8693935671650905 55.9303060463620980 -8.0470348012761264
 -86.8677116525313835 64.3801255714633243 -23.0817042458034578
 -86.8612849388299821 64.3872809748356474 -15.5763030220971430
 -86.8693699293174859 64.4409012241802088 -8.0468824265680929
 -83.8162441654041288 55.8743880194536899 -23.0742032011777916
 -83.8085295604309835 55.8757220684246363 -15.5722296694798938
 -83.8081020256585134 55.8359268156890494 -8.0265693750107161
 -83.8162552753044139 64.3850898541944474 -23.0741236205225100
 -83.8085211087414450 64.3863003451941864 -15.5722840813918495
 -83.8080750660971177 64.3465496512854997 -8.0265342087639429
 -80.7540585260076682 55.8831161093238151 -23.0954694037322952
 -80.7552966311269103 55.8752934237348242 -15.5767145977550534
 -80.7447742233642458 55.8277752608912934 -8.0575608836173256
 -80.7541733613834793 64.3937667934334854 -23.0954645127596514
 -80.7552993136909834 64.3858724074336095 -15.5767458734554793
 -80.7447297470480692 64.3383625386589415 -8.0575019249200253
 -77.6955512517388343 55.8792503550563708 -23.0867751777164933
 -77.6972801051370823 55.8756873052113505 -15.5809721169647695
 -77.7074616141349281 55.8679563730651694 -8.1144700554124682
 -77.6956512370687449 64.3898713917434691 -23.0868592580263829
 -77.6972754883543217 64.3863097431925837 -15.5809772655939902
 -77.7074206623024111 64.3785391498930153 -8.1143549110842734
 -86.8625998237035759 58.7207710510957881 -23.0885994879866310
 -86.8610287311208111 58.7137435921517081 -15.5762922020754626
 -86.8811006497984977 58.7822284162183237 -8.0868289332051155
 -86.8626590100081870 67.2314238546735936 -23.0886499773715599
 -86.8610083318792192 67.2243537204425365 -15.5763402232766559
 -86.8811208218046716 67.2928455820097327 -8.0867850721446697
 -83.8084685295686995 58.7119660675398762 -23.0885343892542458
 -83.8082768772820543 58.7128881839991976 -15.5714539847029876
 -83.8092166492693309 58.7137427498917575 -7.9174051715905929
 -83.8085325258626028 67.2226851548174409 -23.0885252648427794
 -83.8082549565823456 67.2234848180208076 -15.5714922480322322
 -83.8092409941763776 67.2243541116262406 -7.9174609352469005
 -80.7546554366273028 58.7035123567383508 -23.0888988628184819
 -80.7555633060974429 58.7119497876394050 -15.5763033935734878
 -80.7365902375105691 58.6447223557792299 -8.0875044588558715
 -80.7547619243298129 67.2141759616175847 -23.0888554647604920
 -80.7555661206215660 67.2225430071091807 -15.5763128770967896
 -80.7365565707364112 67.1552746766495687 -8.0874841926984953
 -77.6977870758880016 58.7123059474677618 -23.0838848482533869
 -77.6973463927619292 58.7128251548649160 -15.5808655439056469
 -77.6980088646632794 58.7130958381289147 -8.1085980548756105
 -77.6978510547417898 67.2229943868613304 -23.0839522561861124
 -77.6973475649723895 67.2234307395319064 -15.5808710612297538
 -77.6979856258181059 67.2236896343621737 -8.1085278261670233
 -86.8631895825331668 61.5413421847518336 -23.0951179948495167
 -86.8612784958719715 61.5503990391357547 -15.5766711552386248
 -86.8731086941590576 61.5996517468674654 -8.0580313379508279
 -86.8632110529515415 70.0519726954955217 -23.0951970462080425
 -86.8612677003981872 70.0609977131082644 -15.5766665278520673
 -86.8731520464216231 70.1102934934726960 -8.0580827132265451
 -83.8009497094733007 61.5500404356359425 -23.0740853480337229
 -83.8080617789375282 61.5500386290726453 -15.5722606723872161
 -83.8097650213892820 61.5919878595548411 -8.0275140043027147
 -83.8009691931332981 70.0606620220706020 -23.0740877650410603
 -83.8080555118913679 70.0606664147611014 -15.5722440128839796
 -83.8097939894007737 70.1025278937760845 -8.0274797296231952
 -80.7497275785885336 61.5551334043635094 -23.0824563611980444
 -80.7552924400800407 61.5489980878912917 -15.5762899677111477
 -80.7485049803575521 61.4963930900698585 -8.0471101573449495
 -80.7497733634439214 70.0658065657235625 -23.0824018789087866
 -80.7552951802176580 70.0596275869461920 -15.5762482412632171
 -80.7485397153124751 70.0069503638063964 -8.0470547187039934
 -77.6998602146064457 61.5454669891506043 -23.0868521062081591
 -77.6974050116432409 61.5498742971114154 -15.5809509294212045
 -77.6884956395668809 61.5578565787512346 -8.1145351373218535
 -77.6998704199790780 70.0561237552680325 -23.0868411963334985
 -77.6974043203182845 70.0604801546693210 -15.5809219321431769
 -77.6885203165199556 70.0685476687577449 -8.1145739751554444
 -88.3956283434910404 54.4204938956833644 -25.8406894980736581
 -88.3914038069153776 54.4565826611133943 -18.3322296980689927
 -88.3885566657453126 54.4608858681542998 -10.8423786072086052
 -88.3956147995715469 62.9313167861535732 -25.8406136257395858
 -88.3914103666234325 62.9671988794316917 -18.3322331377709347
 -88.3885510663349976 62.9714917722043666 -10.8423326572616929
 -85.3408850442125413 54.4041815200094945 -25.7797952112620798
 -85.3359784702753359 54.4564073282951995 -18.3295170896222501
 -85.3323417387755114 54.4631786936686524 -10.8070161051584535
 -85.3410455210654959 62.9148897888533654 -25.7796542299446081
 -85.3359765816397413 62.9670110996537460 -18.3295060767886540
 -85.3323432844133549 62.9738058672882630 -10.8069890529032921
 -82.2766903803449168 54.5090683250889896 -25.7802406243530555
 -82.2805944010847270 54.4580522458885454 -18.3294473152845470
 -82.2845028599504360 54.4527297833739254 -10.8070335098395880
 -82.2767636533466487 63.0196573246114724 -25.7799408907051841
 -82.2806000244145537 62.9686574662787919 -18.3294705844937020
 -82.2844939022500341 62.9633716756474868 -10.8070023741455206
 -79.2215604565507903 54.4940497387117233 -25.8426065812674608
 -79.2253191346833887 54.4579262519889511 -18.3322072844137196
 -79.2285619855230721 54.4548604491758965 -10.8424189544132101
 -79.2215979740533243 63.0047603607152524 -25.8426432868927805
 -79.2253231863695788 62.9684962847818142 -18.3322437201015340
 -79.2285469399530911 62.9654903927479452 -10.8423855632154158
 -88.4085573764244117 57.2859804052749482 -25.8465400173467046
 -88.3913854292007954 57.2945263374107867 -18.3333700362572323
 -88.3874700711511707 57.3030491387426721 -10.8455042251928493
 -88.4085966051935799 65.7966675831650036 -25.8465871056593386
 -88.3914320323829514 65.8051617833781535 -18.3333814125778964
 -88.3874569165499508 65.8136143949443095 -10.8454675630357738
 -85.3863016960233097 57.2795261823275084 -25.8616647527240779
 -85.3359184372291537 57.2946054949287031 -18.3311494940729709
 -85.3324421580572192 57.3009518832902955 -10.7942316727276015
 -85.3863877843547527 65.7900910460386399 -25.8617132765206641
 -85.3359576432460472 65.8052621343865667 -18.3311983146177333
 -85.3324458626287026 65.8115175206340837 -10.7942109246511642
 -82.3132048016186388 57.2916850982556127 -25.8685121146416392
 -82.2810291804630225 57.2937263305997533 -18.3316042041934750
 -82.2863516158682273 57.2919231547155974 -10.8049305835874634
 -82.3133865574509258 65.8023084113921470 -25.8684789891019200
 -82.2810438811614802 65.8043751362678933 -18.3316673017119847
 -82.2863395701668026 65.8024935983745252 -10.8049171081884161
 -79.2550403721920844 57.3109993394810928 -25.8941016439004983
 -79.2255637691626617 57.2940835903529262 -18.3337502151377763
 -79.2299124330546647 57.2910406840695714 -10.8416939738164650
 -79.2550287778392999 65.8216273836932402 -25.8940414228228484
 -79.2255936891034196 65.8046581929882421 -18.3337415884084720
 -79.2298901705448486 65.8016055989619986 -10.8416678214591169
 -88.3632551642146069 60.1143965719271733 -25.8947267318056937
 -88.3911611462563371 60.1310531556161649 -18.3338294812191016
 -88.3871992207110537 60.1354145830350078 -10.8416259354500717
 -88.3631978434419239 68.6249711831318905 -25.8947404139660442
 -88.3911943063863674 68.6416880503813758 -18.3338236429061396
 -88.3871929338091746 68.6459728765403554 -10.8416188236679378
 -85.3049790482676258 60.1322286345947319 -25.8682345043698341
 -85.3356610668325999 60.1311254553066448 -18.3315940319463984
 -85.3306162863680555 60.1346980886037912 -10.8049742966717464
 -85.3049945279022097 68.6428005404249575 -25.8683326943580596
 -85.3356793786551719 68.6417540916115456 -18.3316224851606968
 -85.3306195456688101 68.6452423472438369 -10.8049870936539989
 -82.2322663511638723 60.1448320727837284 -25.8609162292364907
 -82.2807713084652192 60.1307046720646525 -18.3310785949652661
 -82.2844957201714635 60.1255328088658985 -10.7943299778182045
 -82.2322975289880276 68.6554285180253174 -25.8607822407803880
 -82.2807877950237412 68.6413931267011321 -18.3310991322056012
 -82.2844941547209032 68.6360544172594018 -10.7943315163021385
 -79.2091773624753586 60.1389005488463653 -25.8482064025548155
 -79.2253582150325855 60.1306046937738188 -18.3332444951912024
 -79.2296706372076898 60.1232989754585105 -10.8454531585288638
 -79.2092386327803410 68.6494929931544249 -25.8482084627067685
 -79.2253940513751473 68.6412864314004736 -18.3331861449263194
 -79.2296591303049524 68.6338451024953571 -10.8454503073031709
 -86.8735124995669992 54.4001408354869156 -26.7681181430427415
 -86.8638816219395409 54.4557439270894719 -19.3305859470160470
 -86.8555314842432580 54.4643675761852890 -11.8193077050185309
 -86.8735392042623289 62.9108040760581488 -26.7681196438027555
 -86.8639048439811177 62.9663532752834456 -19.3305870515022313
 -86.8555343727931728 62.9749903383288157 -11.8192728930332240
 -83.8092134447525723 54.4567477299701679 -26.7591027588367645
 -83.8082826280324298 54.4571820393889254 -19.3278288445946949
 -83.8083817277185972 54.4579416211627247 -11.7974708182284065
 -83.8092544918673923 62.9673295322607416 -26.7588073130010997
 -83.8082981353885543 62.9678233870724569 -19.3278039064942959
 -83.8083808302379651 62.9685824570220092 -11.7974421381308527
 -80.7441680864034055 54.5142078383227044 -26.7697754713632463
 -80.7528379740716531 54.4586179370633801 -19.3305652441961939
 -80.7613361257705549 54.4513940318309935 -11.8192603913098360
 -80.7443352482161743 63.0249025191590420 -26.7695492703894509
 -80.7528322438886335 62.9691775621397341 -19.3305635972203014
 -80.7613245112833482 62.9620337114829312 -11.8192429704039519
 -77.6969613718933232 54.4570178098505835 -26.7773966817109290
 -77.6975011469967001 54.4572472305265478 -19.3320803088554385
 -77.6975125540374876 54.4578139184959724 -11.8458376351845107
 -77.6970240204207840 62.9676815114632262 -26.7775308948099529
 -77.6975183965808753 62.9678226606194826 -19.3321320456631405
 -77.6975004483442433 62.9684367202098798 -11.8458131441294032
 -86.8939049169710103 57.2819099031040579 -26.8527259384304635
 -86.8638433897364024 57.2947180404176208 -19.3322156286708413
 -86.8529942350758262 57.3028811842637040 -11.8212412195864083
 -86.8940195749040925 65.7925328271561085 -26.8527443071893757
 -86.8639244473530425 65.8053508013551465 -19.3322531191231590
 -86.8529912877157102 65.8134435302817167 -11.8212086389377671
 -83.9339818079618567 57.2751098871640778 -26.9011308627881363
 -83.8091119203169228 57.2938219499119015 -19.3320252215988901
 -83.8105795685515744 57.2977683972286727 -11.7937184284457182
 -83.9338750562234566 65.7857645443553878 -26.9011292908590072
 -83.8091299811657109 65.8045013797428311 -19.3320434583406247
 -83.8105796514246748 65.8083380899290518 -11.7937102434289862
 -80.8160465770748857 57.1627916847342519 -27.0459394790877816
 -80.7531466756747704 57.2937159451518312 -19.3346342544544854
 -80.7629402507674286 57.2917654458533434 -11.8236316539882651
 -80.8161852694212257 65.6734010290207237 -27.0457328904082424
 -80.7531336809229998 65.8043543570291547 -19.3346449564050964
 -80.7629250875134517 65.8023305126569085 -11.8236155352118555
 -77.7136169885894219 57.3415205382965354 -26.9010708633268116
 -77.6971624720269176 57.2948306208970024 -19.3344092994108934
 -77.6980749322154622 57.2931236829247865 -11.8493965452382621
 -77.7137499999216033 65.8522645127786461 -26.9012640479683860
 -77.6972130976827344 65.8054269955813851 -19.3344103631471889
 -77.6980574361018199 65.8036884507357769 -11.8493545489216174
 -86.8023379250640517 60.2611477166852367 -27.0433925702753903
 -86.8635932341339441 60.1312288677311102 -19.3347364253782068
 -86.8539718448529214 60.1346459568448566 -11.8236013433992753
 -86.8023301329516954 68.7718906177735363 -27.0436276058729739
 -86.8636531567396162 68.6418458491123289 -19.3347451943560316
 -86.8539694067814452 68.6451960263417078 -11.8236071873402881
 -83.6853027475670643 60.1482055957555630 -26.8995071966799628
 -83.8075914027858033 60.1310510935209450 -19.3319286681816607
 -83.8062746937014253 60.1286855257283008 -11.7937781369389505
 -83.6853821964338493 68.6586448969516709 -26.8993940177603115
 -83.8075958772762561 68.6416977449964918 -19.3319937039273242
 -83.8062730457204168 68.6392263353888552 -11.7937902933958050
 -80.7255978703139903 60.1424034319742589 -26.8527606598587667
 -80.7529524431644319 60.1304115191496393 -19.3321330510212412
 -80.7638783054538010 60.1234584220889019 -11.8212672108823220
 -80.7256646098213224 68.6532650746683260 -26.8527714408562730
 -80.7529414740218243 68.6411034659053740 -19.3321316922454649
 -80.7638763234824921 68.6339904299518082 -11.8212685529506363
 -77.6816818854349691 60.0825666241091128 -26.9055557029426211
 -77.6978583619006287 60.1303152019481715 -19.3343942147539707
 -77.6969390354184384 60.1331737118350489 -11.8493621405910119
 -77.6818107927051074 68.5931131369803637 -26.9054602623484591
 -77.6978810050126185 68.6409649874168224 -19.3343126904641913
 -77.6969330758487047 68.6437216891878990 -11.8493509319151045
 -88.3926660273595672 55.8750467895592280 -22.0888291334073976
 -88.3893118972336822 55.8766204206965682 -14.5795475149308800
 -88.4274031735495356 55.8968911925773355 -7.1418475344060157
 -88.3927492921850302 64.3856533076035191 -22.0889656697001371
 -88.3893030835793638 64.3872256734770616 -14.5795721536925704
 -88.4273253003331945 64.4074928151730717 -7.1417801048373120
 -85.3412592336836440 55.8749140727653995 -22.0799647302582791
 -85.3337548357322078 55.8764977852425488 -14.5724087646418035
 -85.3590451097823006 55.8723932226431117 -6.9919279404552110
 -85.3413177279637978 64.3855451670604992 -22.0799333616409399
 -85.3337488254883283 64.3871209584726074 -14.5724521159195479
 -85.3590435854139713 64.3830089115772921 -6.9919229541780004
 -82.2807751053968843 55.8837799589194475 -22.0837697769177552
 -82.2829815834962091 55.8752628185778164 -14.5735160153241416
 -82.2430617781875810 55.8251853560661218 -7.0968506308607804
 -82.2808159088188944 64.3944627847135962 -22.0836558142910171
 -82.2829810618543860 64.3858514076271007 -14.5735462479931499
 -82.2430361225473092 64.3358303393649322 -7.0968005169127846
 -79.2256790768724528 55.8818614241911220 -22.0918001521997027
 -79.2274377929216627 55.8757516724009520 -14.5798963154979209
 -79.2075588208407169 55.8752011124797221 -7.1264925931058301
 -79.2257376563385094 64.3925025547066952 -22.0918881582717646
 -79.2274340876387839 64.3863374768806409 -14.5799132852502815
 -79.2075078068212832 64.3857915311772331 -7.1264181444127077
 -88.3906895573415454 58.7147351747379176 -22.0890491390425652
 -88.3892766135794119 58.7138727484337366 -14.5799276254657926
 -88.4449968502056123 58.7884455981288099 -7.1119678853827670
 -88.3907797105799204 67.2253480975013673 -22.0890338012630991
 -88.3892609470917137 67.2244675276228207 -14.5799342413145627
 -88.4450046816141509 67.2990790153024960 -7.1118970705730105
 -85.3353024212136546 58.7176078986400256 -22.0878984192099068
 -85.3336025441251138 58.7136055091338420 -14.5712881139337149
 -85.3462147710109917 58.6372632960922999 -6.7640544104798765
 -85.3353653873632396 67.2282583679206880 -22.0878731972388351
 -85.3335869082814469 67.2242011734067546 -14.5713227152398233
 -85.3462745575915847 67.1479329749474942 -6.7640988908701969
 -82.2814516694707976 58.7066413119269512 -22.0883378377133077
 -82.2830192279349859 58.7122225882955817 -14.5713195037015701
 -82.2751791942039858 58.7917515511350999 -6.7638202915994849
 -82.2815323800456611 67.2172901971327974 -22.0883071827369228
 -82.2830175002201116 67.2228019074871526 -14.5713273006682957
 -82.2751557794239829 67.3024892888317510 -6.7637776651725501
 -79.2266641937144414 58.7099966446284256 -22.0893298833114002
 -79.2273321035094114 58.7118539148648964 -14.5799052569669758
 -79.1732654201281321 58.6382695774548282 -7.1121932581005449
 -79.2267336015118957 67.2206897595535224 -22.0893398631248488
 -79.2273325632958887 67.2224372737328224 -14.5798972630510271
 -79.1732007544943031 67.1488402693545652 -7.1121250962062108
 -88.3915901826496224 61.5428395506141470 -22.0917630325942476
 -88.3891783400362101 61.5500266276333576 -14.5798756026716649
 -88.4101900179750402 61.5513444658323223 -7.1262617816016505
 -88.3915833935786281 70.0534805130216824 -22.0917510904685805
 -88.3891701858121621 70.0606111909620779 -14.5798731940524657
 -88.4102471671953651 70.0620589541369583 -7.1262999533025129
 -85.3362882963631222 61.5405712701150165 -22.0835336545780265
 -85.3336379713226307 61.5505767391807908 -14.5734888090455890
 -85.3754172606298312 61.6028604792329588 -7.0969861632736642
 -85.3363358262999441 70.0511453721446458 -22.0835560305851253
 -85.3336278584672812 70.0611600561895074 -14.5735019908681753
 -85.3754655953872543 70.1134718793555720 -7.0970121889962554
 -82.2756713596347566 61.5497777226835936 -22.0803321960426224
 -82.2828815186678497 61.5492255138490947 -14.5724404241641228
 -82.2585629521761064 61.5537974792268443 -6.9914518154901906
 -82.2757199579393301 70.0604247922337322 -22.0803119752994021
 -82.2828828518343585 70.0598381759131428 -14.5724391170584511
 -82.2585906592705527 70.0643171201116246 -6.9913765393527321
 -79.2247211212879989 61.5497755277420069 -22.0893694427306571
 -79.2273100945620712 61.5490266525325964 -14.5795140391916576
 -79.1909123217196651 61.5292499296861095 -7.1424749012262652
 -79.2247292029305470 70.0604353255140211 -22.0893335485261808
 -79.2273136826572539 70.0596307562466052 -14.5795049249033308
 -79.1909368719620232 70.0399226014126697 -7.1424980496831649
 -79.0385528905797372 57.7225291797187410 -2.7021312205339596
 -79.0345630953616336 57.7107378108748108  7.1406136077594571
 -79.0328952002284950 57.7105921438106222 16.9769611164139711
 -79.0385278426260101 66.2331533974266904 -2.7021331759708032
 -79.0345867323306663 66.2213063692019119  7.1405856704902675
 -79.0328690625768786 66.2211670945360282 16.9768546778227183
 -78.9872822863136577 61.9370097410102574 -5.0815107385789444
 -79.0345984581911409 61.9664232746880543  4.6838442153862578
 -79.0354933112939335 61.9650490535760738 14.5122270904980795
 -78.9872367946021967 70.4474608441575469 -5.0815894246132567
 -79.0346162662364975 70.4770457492284237  4.6838576900216013
 -79.0354942923848682 70.4757063123870608 14.5122067161315460
 -79.0401026554681607 61.9706999987891152 -0.2197881840841903
 -79.0347689140810417 61.9656554111073703  9.5980696142854658
 -79.0357446656363578 61.9630787312522244 19.4040966448742758
 -79.0401089539513038 70.4813330382657028 -0.2197200465901795
 -79.0347913595886098 70.4762905229851810  9.5980585223734227
 -79.0357547589744769 70.4736638943901141 19.4040957306031743
 -79.0333727813709714 57.7120309526454776  2.2240859929403070
 -79.0350159899745677 57.7101972407326187 12.0557680545613000
 -79.0474779189692924 57.7324578088159370 21.9109853951442126
 -79.0333771079578753 66.2225725764290445  2.2240629650841983
 -79.0350251008316320 66.2207187841379437 12.0557560257548264
 -79.0474818892267166 66.2431705845215362 21.9110665902024238
 -79.0059931100085038 54.9627149663293224 -4.2615396396924874
 -79.0342176972025214 54.9605266129190539  5.5530929139299960
 -79.0360005509384536 54.9604168076287607 15.3790706387744098
 -79.0059565904265213 63.4734356707545331 -4.2615032597174034
 -79.0342263238146501 63.4711160413795454  5.5530815767886628
 -79.0360137920870045 63.4709744007499950 15.3790582574116002
 -79.0348390058885997 59.2157023797421118  3.0920244417640044
 -79.0346669154358779 59.2148067675860261 12.9249436388418797
 -79.0520245521238252 59.2596208210612332 22.8350631507802220
 -79.0348383568686046 67.7262359238588232  3.0920289454048402
 -79.0346684994507314 67.7253464993613363 12.9249094111788061
 -79.0520623076774172 67.7702598214961967 22.8350024900723589
 -79.0391347532534638 59.2243962496647001 -1.8428667326944661
 -79.0347342444679413 59.2152213868053039  8.0094451756267251
 -79.0346181101236454 59.2112529889464341 17.8513025911140950
 -79.0391046036545362 67.7350020312053545 -1.8428357956974557
 -79.0347561429929044 67.7257886428876077  8.0094069986554981
 -79.0345391770024008 67.7218238713958698 17.8511880982447870
 -79.0313313126749222 54.9653014623789105  0.6489115182711823
 -79.0348521483738296 54.9596547983342703 10.4669401337677890
 -79.0339791345731442 54.9661004676169114 20.2472399453600538
 -79.0313290303125768 63.4758836655784009  0.6488486841610410
 -79.0348563990609136 63.4702274499753543 10.4669424373024622
 -79.0338920057037626 63.4767378716021042 20.2471942441609976
 -79.0319510784564159 54.9721098098396865 -1.0807638216847932
 -79.0347780020681512 54.9598968343934189  8.7294177769604584
 -79.0295977201271853 54.9567130129819290 18.5285608331750637
 -79.0319398476347459 63.4826939905141714 -1.0808420540809396
 -79.0347883344515481 63.4704677894317228  8.7294114484045497
 -79.0295309496214458 63.4673599125327499 18.5285479673423801
 -79.0460119280658660 59.2055484983221874 -3.6008391522504040
 -79.0345246023480001 59.2154699101719757  6.2716616327971160
 -79.0362605238100713 59.2130634405861542 16.1078523555725823
 -79.0459718768949529 67.7161912178391816 -3.6008206418224065
 -79.0345303879449972 67.7260364386491887  6.2716367275999616
 -79.0362185509349331 67.7236655971212826 16.1077427446094283
 -79.0352062994570304 59.2151046622758557  1.3519429350253960
 -79.0349773328379541 59.2148152061519042 11.1870391090668733
 -79.0476013990815431 59.2580534810952599 21.0895811945640759
 -79.0352057932273482 67.7256590970559245  1.3519551538126149
 -79.0349857269741847 67.7253350776802137 11.1870141472185747
 -79.0475975926189989 67.7686442317624369 21.0894613831445952
 -79.0343828326659406 54.9612251628850430  3.8161018202125319
 -79.0349131090588344 54.9594316159138288 13.6428728427836301
 -79.0479738816070068 54.5984191929761025 23.2682072626033403
 -79.0343829762958023 63.4718107016950555  3.8160699181563156
 -79.0349177935311360 63.4699720330890642 13.6428491329156731
 -79.0480144312865036 63.1091142155021601 23.2681562048631321
 -80.4415898279493007 55.3855815359541310 -1.8115276552688440
 -80.4495931735272762 55.3753074789920774  8.0096663153772880
 -80.4522140638060392 55.3746637776163269 17.8341692395829519
 -80.4415759449481698 63.8961573115932495 -1.8116200863347176
 -80.4495987920727202 63.8858856317809227  8.0096619354659389
 -80.4521634280767302 63.8852532512386162 17.8341825736878086
 -80.4502392416418104 59.6997444062553342 -4.3445083505925419
 -80.4490160020525451 59.6313134636395219  5.5515053640649912
 -80.4497889817331355 59.6287005790728841 15.3837196746291713
 -80.4501796281012105 68.2104121186112167 -4.3445449831391700
 -80.4490232727017940 68.1418870367435829  5.5515067941416198
 -80.4497725569578392 68.1393036278356874 15.3836607528265166
 -80.4492916682117283 59.6319356543882719  0.6281742921802855
 -80.4495930195919868 59.6304175066014039 10.4670449818491313
 -80.4444159734911892 59.6594319146457153 20.3067306606338640
 -80.4492843432142166 68.1425076211192220  0.6282014839703153
 -80.4495859425654629 68.1409578036246018 10.4669996849461864
 -80.4444369550812297 68.1700017745612996 20.3066304752420983
 -80.4499270797779218 55.3776307395094918  3.0977353908996030
 -80.4500686055232705 55.3746480051487922 12.9238772976165883
 -80.4187310032325087 55.2660454298244304 22.6885359417681123
 -80.4499228547684311 63.8881809532780451  3.0976774771807274
 -80.4500629299426606 63.8851547424622908 12.9238420184511504
 -80.4187336043200247 63.7767877059604942 22.6884825893810529
 -80.4471783953284643 56.8824010801951303 -2.6918708075654156
 -80.4495573211032138 56.8801131258636943  7.1410174910475765
 -80.4482703545750866 56.8805516727129614 16.9691823505471042
 -80.4471567680195250 65.3930174577912737 -2.6919177689593172
 -80.4495767339408729 65.3906861244348221  7.1410064673857407
 -80.4482503059660985 65.3911001375446972 16.9691391001056182
 -80.5028751105346316 61.2665864738424233 -4.9792570313320823
 -80.4496031540970762 61.1359185716066165  4.6825023740408085
 -80.4504192485844811 61.1343085732113636 14.5158979689674084
 -80.5028970820905272 69.7772387668652243 -4.9793641537314279
 -80.4495986368050637 69.6464940879453280  4.6825039479066826
 -80.4503982171343495 69.6449237562115826 14.5158530210826768
 -80.4550024419826570 61.1416778344279308 -0.2314462945128017
 -80.4496933059521950 61.1350151985865935  9.5981223211022151
 -80.4584254709148752 61.1453021271856443 19.4096776234793573
 -80.4549864886059538 69.6522625821335595 -0.2313959531690977
 -80.4496893920696436 69.6455827283361657  9.5980866017958562
 -80.4584257568776167 69.6558788702272551 19.4095816785078839
 -80.4487771497134219 56.8823604612485951  2.2283856005133313
 -80.4499377684750669 56.8793359061812680 12.0551186383453022
 -80.4169900275331457 56.8466897320717877 21.9096910356293257
 -80.4487783960755820 65.3929091538570191  2.2283343998645755
 -80.4499328347050806 65.3898492385140742 12.0551090018373550
 -80.4169377816640605 65.3572909906413315 21.9095207720101897
 -80.4499546022883152 55.3908101409773934 -3.5730083924960407
 -80.4494499584151157 55.3755840007474873  6.2721927600388918
 -80.4519054012756101 55.3767548055909273 16.0981712865973705
 -80.4499769110533265 63.9014417208968410 -3.5731033004213129
 -80.4494555519764276 63.8861554702787160  6.2721947157694000
 -80.4519044196436965 63.8872594395961357 16.0981888415966665
 -80.4491694767347525 59.6315470991772614  3.8132297326652904
 -80.4490214582051237 59.6305088608617027 13.6452896933448926
 -80.5465693966413738 59.8780393922500380 23.5966274292845881
 -80.4491595337972853 68.1421088651595142  3.8132329555510012
 -80.4490015109044947 68.1411121132506139 13.6452374049495795
 -80.5466172215323439 68.3885621475058088 23.5966551927024604
 -80.4503480139929081 59.6435374971316747 -1.1134653402965762
 -80.4495479266773117 59.6304458190163942  8.7293227941181843
 -80.4503297305171259 59.6266458454757924 18.5682678262075314
 -80.4503163887456765 68.1541351316649440 -1.1134424421931290
 -80.4495676710611320 68.1410116934441845  8.7292750219161288
 -80.4502749151222645 68.1372257469745932 18.5681511017245313
 -80.4489635125250686 55.3776628598209868  1.3619370229892989
 -80.4499182689428238 55.3746637239716719 11.1864394822097051
 -80.4355916412831249 55.3799156253786578 20.9771059085886087
 -80.4489587170524629 63.8882259018737528  1.3618808724834228
 -80.4499289665431689 63.8851890958437991 11.1864313730554770
 -80.4355166719048640 63.8904985499650877 20.9770467207686053
 -81.4824121450238721 62.7326076450321679 -2.6767157407362894
 -81.4758235748534219 62.7152830526910492  7.1405372976082955
 -81.4796025693785282 62.7187108967882523 16.9730777333235814
 -81.4824108890920087 71.2432365309949347 -2.6765969724223360
 -81.4758348024475367 71.2259265423181063  7.1405339087484530
 -81.4796605128793914 71.2294122495179494 16.9730546179433475
 -81.4474899495102846 58.4649330745287870 -5.0877166323518832
 -81.4753772293148018 58.4610775036631622  4.6835620655934305
 -81.4756602072212388 58.4594002906183263 14.5106573735212887
 -81.4474361917905867 66.9756343446214970 -5.0878053941846479
 -81.4753596127305144 66.9716341761461962  4.6835631831898468
 -81.4756193642234194 66.9699870945895981 14.5105899837407062
 -81.4731434469750013 58.4617884728652868 -0.2463727711827369
 -81.4759580172103171 58.4598952511085130  9.5982051590432729
 -81.4697876504237115 58.4616047178454821 19.4585249946786050
 -81.4731036563391200 66.9723490061283684 -0.2463742328003118
 -81.4759572845849505 66.9704471017704464  9.5981595876094410
 -81.4697520219969675 66.9721504962629552 19.4583412800454134
 -81.4759393978297339 62.7171801447062549  2.2259987903999381
 -81.4761739528896243 62.7142695881662888 12.0555991323609426
 -81.4966513511515416 62.6537175184574338 21.8237424503018609
 -81.4759566174168128 71.2278472181429976  2.2260576251081399
 -81.4761849767554480 71.2249729741279225 12.0555993453530270
 -81.4966540816460707 71.1643050647757320 21.8236200880714684
 -81.5575608473879470 60.9944906478006885 -3.6798874323335351
 -81.4756676795139896 60.9687117308859357  6.1310440836510827
 -81.4778285748171243 60.9653534531080794 15.9647848605938538
 -81.5575208192420291 69.5050910589580155 -3.6799698902337323
 -81.4756784877487519 69.4792998974349985  6.1310476954503752
 -81.4778247004845610 69.4759547798806096 15.9647170721499680
 -81.4758195295686249 56.7153582692429197  3.6758483048792421
 -81.4763307874953568 56.7123672583280722 13.5029263253138687
 -81.3160416661222882 56.5859729035100401 23.3952593708701535
 -81.4758106388431713 65.2259115943621026  3.6757905581628538
 -81.4763049061296272 65.2228882536552987 13.5029188976387164
 -81.3158475241496319 65.0966155135740792 23.3951639805108194
 -81.4686149613674644 56.7246367489679102 -1.2399331998440433
 -81.4759905198175005 56.7128142914059268  8.5891010860924606
 -81.4708727432915509 56.7165449962794881 18.4187245363816245
 -81.4685895283797805 65.2351947536370602 -1.2399932372551223
 -81.4760016794037796 65.2233856975897339  8.5890887346668752
 -81.4708535331205042 65.2271487826714775 18.4186774714442407
 -81.4782446017836008 60.9672333285071559  1.2128536083741943
 -81.4759363439109592 60.9680958918833440 11.0464393346709304
 -81.4971626558560729 61.0036386109756847 20.8547825240878346
 -81.4782375754655135 69.4777917645136398  1.2129121357221071
 -81.4759328716570650 69.4786580188038130 11.0464024790742172
 -81.4971924421122225 69.5142964737186873 20.8546639937141158
 -81.4900233389924011 60.9820445012817061 -1.6855224064722258
 -81.4758870525011645 60.9680867318530417  8.1498211862360854
 -81.4843508465246487 60.9538081571507888 17.9705395018580276
 -81.4900009440914772 69.4926326805911287 -1.6855127684661801
 -81.4759121774634281 69.4786642992385737  8.1497921726742888
 -81.4843259464124685 69.4644349597576110 17.9703745510821129
 -81.4398535908110546 56.7355729011007810 -4.1806356339767445
 -81.4758384393870045 56.7133080208166618  5.6930277094961124
 -81.4762106930436545 56.7150694716572303 15.5200912962946731
 -81.4398249899986126 65.2462456363517873 -4.1806858107388907
 -81.4758431916156667 65.2238710935445738  5.6930067302419722
 -81.4762067693550449 65.2255883626746851 15.5200152584568158
 -81.4733362775285741 56.7150481820418975  0.7797826787476585
 -81.4762135401793728 56.7122905717042443 10.6069704857444318
 -81.4643412188316773 56.7503910697902967 20.4773372906675775
 -81.4733315151685815 65.2256101755152997  0.7797206816626651
 -81.4762160743557473 65.2228288068468771 10.6069546448083738
 -81.4643209669534940 65.2609052399995448 20.4771955718234402
 -81.4758482925128078 60.9692343802340488  3.2333906851328607
 -81.4759172473434319 60.9682443019452194 13.0668140014977894
 -81.6400772436856244 60.9782216652957203 22.8213623849259228
 -81.4758431619146961 69.4798127957579794  3.2333799331229138
 -81.4758936792427875 69.4788583840771281 13.0667337042740055
 -81.6401908124516069 69.4884549250679413 22.8212374553349342
 -78.0492437714136571 62.1623513351122554 -3.5577005903001386
 -78.0082732205505636 62.1331192341700032  6.1321086936866553
 -78.0090760496684226 62.1322351177013985 15.9562041032728761
 -78.0492617629678023 70.6729933995126487 -3.5576333768597652
 -78.0082863495966876 70.6437256907100135  6.1321299615337610
 -78.0090850698024525 70.6428635368416735 15.9561495335956316
 -78.0073922248134437 57.8788256498412750  3.6724733058582091
 -78.0087014642124643 57.8768949481016861 13.5045894273347376
 -78.0331690801743179 57.8442140731841405 23.4068853427646424
 -78.0074073103251919 66.3893475848304178  3.6724493790257320
 -78.0087183101241095 66.3874304832710465 13.5045465491576966
 -78.0331219514978898 66.3549397108691892 23.4069878984389419
 -78.0057169535451465 57.8811219538810420 -1.2611865598083336
 -78.0083356531642380 57.8775935855598931  8.5889712321353127
 -78.0097528837618484 57.8749971376684513 18.4397404082214003
 -78.0057121258648039 66.3917111870990198 -1.2611744564805754
 -78.0083732656184452 66.3881487214811017  8.5889381212668141
 -78.0096409427197983 66.3855721115029382 18.4396600147516061
 -78.0101830197117607 62.1316486347241224  1.2234542086312039
 -78.0084968784266977 62.1325268163509747 11.0462763478583881
 -77.9947500188625895 62.1361887778580098 20.8409455027747761
 -78.0101930575111311 70.6422768928690914  1.2235262936688143
 -78.0085137431203322 70.6431368992295461 11.0462807108843073
 -77.9947875973939944 70.6467073512143031 20.8410171303826175
 -78.0071519110866376 60.3739311942027683 -2.7295402815235033
 -78.0083005933360738 60.3856730390029881  7.1408926967235162
 -78.0103647579021668 60.3779730749792023 16.9765180715704069
 -78.0071168970031579 68.8845624107614896 -2.7295034748021720
 -78.0083151466682665 68.8962428251872154  7.1408635740837108
 -78.0102948683505844 68.8885820620930645 16.9764035615749620
 -77.9910697312927255 56.2084545304907053 -4.8419326010610568
 -78.0075901387131694 56.1317456046776400  4.6839408264823374
 -78.0084759079620227 56.1315800945025032 14.5121881167594307
 -77.9910150425866675 64.7191965892693872 -4.8418007588006349
 -78.0076057593021943 64.6423464869779139  4.6839168831026212
 -78.0085088099492197 64.6421629031938352 14.5121572779622685
 -78.0006147113443546 56.1416293657568133 -0.2247156664908813
 -78.0084361739889829 56.1303643099088987  9.5983525449795994
 -78.0063102168001308 56.1409998335296692 19.4040462451643023
 -78.0006109496160320 64.6522120942141783 -0.2247817740124347
 -78.0084624875368462 64.6409470083639945  9.5983376874746806
 -78.0062880224180333 64.6517313654225205 19.4040906133162849
 -78.0084462425470804 60.3833500098576295  2.2239320519771630
 -78.0084709386881627 60.3849051777033949 12.0555976985508266
 -77.9572191989610417 60.4230425744165487 21.9696544572400576
 -78.0084388059392211 68.8938956113248935  2.2239583260179607
 -78.0084805651795818 68.8954475859106168 12.0555527268014906
 -77.9571750586105026 68.9336596258478949 21.9694115643536563
 -78.0195695675481886 62.1425104196682696 -1.6544499140955846
 -78.0084532451423911 62.1327780615035081  8.1499259735443594
 -78.0105968745792211 62.1287365703669821 17.9574238927631029
 -78.0195693579783836 70.6531603911419666 -1.6543657320040672
 -78.0084576903650770 70.6434129257665120  8.1499191927266299
 -78.0106174185046228 70.6394095190029390 17.9573506544159116
 -78.0067329994719927 57.8844346436126429 -4.1887866224030024
 -78.0081034326530300 57.8778918881950162  5.6921421071092189
 -78.0077759663489587 57.8776930967028065 15.5271129971339494
 -78.0066761886303084 66.3951040974182547 -4.1887389389598333
 -78.0081216331654588 66.3884503562424158  5.6921240203157479
 -78.0077704082119112 66.3882952998664564 15.5270440984094353
 -78.0070437015323535 57.8780909190466559  0.7712886271576030
 -78.0086079310514009 57.8773273733353975 10.6074316127396440
 -78.0100985161095082 57.8828151270571638 20.5083246808298618
 -78.0070514994066855 66.3886516919628065  0.7712764800974348
 -78.0086305420099961 66.3878440413777895 10.6074065600892293
 -78.0100459104226189 66.3934843160269708 20.5083025162508292
 -78.0083546037275966 62.1334700306865741  3.2370801737567492
 -78.0087393172786960 62.1318726070513350 13.0641449087579460
 -77.8793049660474708 62.0784327156675673 22.7897038304681665
 -78.0083665905475385 70.6440790489470771  3.2370961365644422
 -78.0087452150845877 70.6425302114935931 13.0641166885030895
 -77.8792082941642576 70.5889895633666811 22.7899312451187406
 -87.1821585965568460 60.5466584271508523 -2.6931756597131415
 -87.1824260787100656 60.5474301719624179  7.1409216490678542
 -87.1846313029084854 60.5447937155976703 16.9696127237867849
 -87.1821134708109184 69.0572583555257324 -2.6930622695248907
 -87.1824517702478232 69.0580141951467823  7.1409147870988932
 -87.1845705384784253 69.0553812625803971 16.9695365370051690
 -87.1256756281799909 56.1621343278493583 -4.9785568061865488
 -87.1819181975252491 56.2922526014529652  4.6823714235522464
 -87.1823911068612176 56.2914836617065433 14.5157742925914786
 -87.1256398440442723 64.6728200894618794 -4.9784866382164745
 -87.1819021263615497 64.8028214580581192  4.6823578666279477
 -87.1823784612184198 64.8020355606981724 14.5157183095496620
 -87.1752932140255012 56.2872835756022809 -0.2315294935958362
 -87.1827691194431651 56.2918722287345759  9.5980709783470459
 -87.1744929226560146 56.2798580020568693 19.4099724093980726
 -87.1752707872132788 64.7978355878615986 -0.2315697357954473
 -87.1827746881393892 64.8024239384577356  9.5980534740688910
 -87.1744778432682494 64.7904719024136000 19.4099339839968117
 -87.1820933347986653 60.5462811908732874  2.2280678790134476
 -87.1827714831006375 60.5469678148990340 12.0551674985058401
 -87.2154599194930853 60.5779837154640006 21.9132655029644532
 -87.1821006532935030 69.0568412178780164  2.2281025245238744
 -87.1827828126404398 69.0575304297437782 12.0551445655999032
 -87.2155219815774387 69.0886264715524590 21.9130439089601694
 -87.1886285688288183 62.0435099734083124 -1.8126467408557432
 -87.1825182297804417 62.0520605430976104  8.0097504439873273
 -87.1806311642496752 62.0501793054124846 17.8349890690546395
 -87.1886049485476349 70.5541033673039095 -1.8125208762733627
 -87.1825270489428732 70.5626550296891679  8.0097473996098785
 -87.1805694152862287 70.5607120843760640 17.8349711430597822
 -87.1772468607949662 57.7296858581105354 -4.3446006919811584
 -87.1826593601480369 57.7967304459519724  5.5515384419294280
 -87.1831378280162994 57.7969497679401627 15.3837199588670099
 -87.1771716488741504 66.2403787431578763 -4.3445325646224040
 -87.1826558700221170 66.3073060942287213  5.5515106978069237
 -87.1831142414598617 66.3075047125354473 15.3836489067783262
 -87.1811613343809455 57.7970920771835210  0.6280627932305586
 -87.1829337014103913 57.7962639843926524 10.4671728900405796
 -87.1876722724575757 57.7657833609184408 20.3072119807280238
 -87.1811458871307536 66.3076341927230715  0.6280502650521264
 -87.1829350972451209 66.3068039727045146 10.4671510054458263
 -87.1876516557968984 66.2764951744511421 20.3070727705198095
 -87.1812257585563515 62.0509095506505588  3.0975029960689429
 -87.1825552716643841 62.0514665717526768 12.9240560888745843
 -87.2129374281478107 62.1584981679923345 22.6929485946832905
 -87.1812354103479379 70.5614689648462701  3.0975541225056111
 -87.1825585888904868 70.5620455552365939 12.9240401076915514
 -87.2129093467754473 70.6691364507632613 22.6928429015830986
 -87.1798092751478748 62.0382154778654140 -3.5745467723321740
 -87.1824344134513183 62.0521527868811376  6.2722959010536226
 -87.1810849128106469 62.0487106186405839 16.0987337689360466
 -87.1798245138660093 70.5488072975174134 -3.5743875370701312
 -87.1824468357943374 70.5627379377151698  6.2722880239673087
 -87.1810635664281648 70.5593136580827860 16.0986890606730810
 -87.1821434791660437 57.7967823814778612  3.8132680952362144
 -87.1838036429103056 57.7955784005426167 13.6453310314186531
 -87.0835286166243634 57.5462547998339886 23.5964899385828595
 -87.1821249005721768 66.3073357123427769  3.8132442596982643
 -87.1837860882371416 66.3061198389544160 13.6452702431837594
 -87.0834937267448197 66.0570363906175970 23.5963124769909669
 -87.1793787123045405 57.7854664759999679 -1.1135288181780538
 -87.1827965517230297 57.7966221351661602  8.7294390600349363
 -87.1825062565096260 57.7988670995713534 18.5687392987679907
 -87.1793335124558979 66.2960312167829642 -1.1135371667947787
 -87.1828177631110748 66.3071744123327278  8.7294217555599189
 -87.1824496172796586 66.3094394912422302 18.5686425129279691
 -87.1817140059989839 62.0509817899619947  1.3616295900228590
 -87.1827012195800535 62.0516930407379164 11.1865595783676355
 -87.1979749594849380 62.0446291693697631 20.9806771671059664
 -87.1817214410390164 70.5615675713271742  1.3616811427204960
 -87.1827090174202652 70.5622650991844864 11.1865328655000145
 -87.1978772802722517 70.5553139168418539 20.9805955137491971
 -88.6243584750988731 62.4669804188357745 -4.2626316043632420
 -88.5974411853975425 62.4674617738106406  5.5531124621015993
 -88.5967618512895143 62.4652505054709977 15.3792121224625014
 -88.6243583282087144 70.9775537581973595 -4.2624736246071100
 -88.5974578357852351 70.9780611547885627  5.5531190588450530
 -88.5967568230379925 70.9758602744858251 15.3791808426258960
 -88.5962218963150434 58.2129338458826808  3.0920423101243388
 -88.5980791931263383 58.2114741984563153 12.9249946040500330
 -88.5813041048972707 58.1626504562639539 22.8365636502053952
 -88.5962203489720963 66.7234647010493376  3.0920353541055960
 -88.5980809495306545 66.7220057206093315 12.9249495520670230
 -88.5812870378572512 66.6734114501012982 22.8364725016571164
 -88.5902236263538327 58.2048330486984327 -1.8429561226024451
 -88.5974276292756571 58.2120972679157731  8.0095057974591626
 -88.5981306615523891 58.2142430740047203 17.8514095189060882
 -88.5901946769049715 66.7154250986959596 -1.8429112488217341
 -88.5974527941556858 66.7226592835993415  8.0094882658577529
 -88.5980502318587924 66.7247935851262639 17.8513047471320796
 -88.5991453855256026 62.4634980716122001  0.6486060103152830
 -88.5975858800224927 62.4670275333004099 10.4669579810091573
 -88.5987885409988962 62.4598046996145513 20.2490584244825911
 -88.5991528169492568 70.9741244248541392  0.6486674826816349
 -88.5975985471857541 70.9776337982932688 10.4669520737204671
 -88.5987703373440354 70.9704286622294944 20.2490394109787566
 -88.5906775719041235 59.7065561669920726 -2.7024419024343960
 -88.5974116809593397 59.7167843186348506  7.1408258284066699
 -88.5999824025805509 59.7148572974022898 16.9771153675105033
 -88.5906301149684623 68.2171690048417361 -2.7023335651524265
 -88.5974350754647730 68.2273537426364243  7.1408107875775997
 -88.5999106168199830 68.2254339427259850 16.9770019062595949
 -88.6412962585124120 55.4935858127205321 -5.0805222850708462
 -88.5968685020225166 55.4616539986922916  4.6840094825064078
 -88.5972623036925597 55.4606500648070764 14.5123714350121453
 -88.6412554076048593 64.0043663598234644 -5.0804065307536410
 -88.5968743145491118 63.9722668298701578  4.6839984883002845
 -88.5972753142294209 63.9712495911030885 14.5123528825428458
 -88.5901849408592881 55.4581919685292135 -0.2197383043408811
 -88.5976419994847220 55.4611742139771167  9.5982622499775214
 -88.5969588666344663 55.4619375499460645 19.4038363189327470
 -88.5901821210989766 63.9687821639366803 -0.2197939830988501
 -88.5976647384617308 63.9717704010744868  9.5982515078058093
 -88.5969500234338909 63.9725860089029510 19.4038510253922851
 -88.5974820838874422 59.7166399282088491  2.2241519441611817
 -88.5976741594412260 59.7161241679203698 12.0558692992746135
 -88.5851350513362519 59.6915509348443933 21.9153318475579546
 -88.5974849944797143 68.2271826630353502  2.2241721306400235
 -88.5976862956210738 68.2266637369253317 12.0558210581565426
 -88.5852244352250864 68.2022366142740140 21.9151693911597860
 -88.5982727325042987 62.4568970069003910 -1.0812428225095359
 -88.5975111562955107 62.4671370260042806  8.7294070551713574
 -88.6029666051183113 62.4675884248059461 18.5298709634165668
 -88.5982677238642964 70.9675262409315621 -1.0811652189135186
 -88.5975150103390092 70.9777536485379272  8.7294120567861722
 -88.6029533249411259 70.9781652626760149 18.5298022267164129
 -88.5823149735162616 58.2235026223984917 -3.6010550544885742
 -88.5973004935316766 58.2122469290547428  6.2717277282206476
 -88.5966457459819594 58.2124535460471861 16.1079355687470418
 -88.5822561297097053 66.7341521563333089 -3.6009867452045197
 -88.5973066816761019 66.7228111287985968  6.2717064639780622
 -88.5966184944760187 66.7230309599783595 16.1078431341014543
 -88.5954188161653349 58.2136441624995200  1.3519436320709681
 -88.5976634403015311 58.2116306241082953 11.1870937286780023
 -88.5838637308528405 58.1680736725938985 21.0900823168689797
 -88.5954142775584899 66.7241901357383682  1.3519370384153400
 -88.5976775962117955 66.7221525593988360 11.1870557911125879
 -88.5838407773763521 66.6787516070577340 21.0899907968760196
 -88.5968900661034553 62.4670122997089763  3.8160667160874322
 -88.5977571085854123 62.4663028918997441 13.6430763469456071
 -88.5859082060711387 62.8266468705007242 23.2695600290398339
 -88.5969043773483378 70.9776085749810051  3.8160933874811929
 -88.5977606733139140 70.9769260143942233 13.6430560495226771
 -88.5858215605077248 71.3372853553989899 23.2694698921597478
 -89.6219223389740165 57.0551904679135404 -2.7294035770488594
 -89.6237021577433239 57.0418259864835449  7.1407374838446431
 -89.6223669528865372 57.0474529710550939 16.9765142968053269
 -89.6218847520708266 65.5658297706741848 -2.7293967184395869
 -89.6237211876685222 65.5523924903532844  7.1407163808365883
 -89.6223278694603636 65.5580513578963178 16.9764669233648142
 -89.6388175796726046 61.2209400595660327 -4.8418050814992544
 -89.6238465426063726 61.2963360378044939  4.6837933073564182
 -89.6242843305979733 61.2940441252893464 14.5122105339119774
 -89.6387885200367265 69.7315147501097243 -4.8416366858651259
 -89.6238729250337087 69.8069550646129926  4.6838108118610311
 -89.6242947775236019 69.8046777879667388 14.5121554981602277
 -89.6296707095384164 61.2873141396621719 -0.2250343625380967
 -89.6239238110579350 61.2965315483934532  9.5980868492376548
 -89.6262330884573544 61.2839300005765608 19.4060996714058440
 -89.6296785213488505 69.7979503863769963 -0.2249576303083958
 -89.6239532926815912 69.8071608284405443  9.5980781359430907
 -89.6262691305156807 69.7945659736627277 19.4060603815385235
 -89.6223938298466010 57.0453302366429753  2.2238686334013691
 -89.6241576890372755 57.0414758159508395 12.0555513951175275
 -89.6748556540261461 57.0000774462719306 21.9659015419604984
 -89.6223877400388886 65.5558702293650555  2.2238452096112482
 -89.6241635013182218 65.5519986759087772 12.0555294760859741
 -89.6748483708490909 65.5107600102419951 21.9659043210438334
 -89.5812458537514260 55.2667469629343486 -3.5572799335718401
 -89.6233904107007504 55.2948078489741732  6.1322930228574242
 -89.6236979944861218 55.2933708965528368 15.9564220373602659
 -89.5811970969701008 63.7774114224619240 -3.5572884402593323
 -89.6233979005726411 63.8054074062212564  6.1322768556034246
 -89.6237106451975194 63.8039678242494759 15.9564149832356197
 -89.6236338665846404 59.5497804741743053  3.6725533816161704
 -89.6240481000527467 59.5492857662196826 13.5046429571342124
 -89.6020678216622031 59.5723126606535516 23.4122617506113251
 -89.6236455569734858 68.0603018847827599  3.6725733922438537
 -89.6240625236235644 68.0598227675052243 13.5045903956751161
 -89.6020013092823575 68.0829796277491397 23.4119994450633691
 -89.6235652332503889 59.5481520485777622 -1.2612212760685975
 -89.6238246958855882 59.5495800303408132  8.5890765361770391
 -89.6230571379000338 59.5503963185322505 18.4396332891279506
 -89.6235562240298975 68.0587449308630710 -1.2611545333039316
 -89.6238642240150796 68.0601396203639268  8.5890535813255315
 -89.6229577155263399 68.0609312839418124 18.4394987006107129
 -89.6202157134619171 55.2971037641311298  1.2236036915262998
 -89.6239378558369424 55.2939918380638176 11.0464388105631048
 -89.6389033157137334 55.2906396269079821 20.8403196566409079
 -89.6202178670037739 63.8076868737923562  1.2235369291201024
 -89.6239477972376193 63.8045775104735498 11.0464356440718561
 -89.6388296447796620 63.8012707845544327 20.8402137408495420
 -89.6108758057204824 55.2866415933162330 -1.6542825029502852
 -89.6238489528632982 55.2942405689745868  8.1501622683502521
 -89.6215171938949595 55.2953240412989615 17.9569512754652756
 -89.6108627646982114 63.7972299528293689 -1.6543486951840634
 -89.6238633666580711 63.8048233037310197  8.1501531353477663
 -89.6215220132126973 63.8059170844443315 17.9570131317000019
 -89.6218187235183734 59.5446405721917742 -4.1891292679895331
 -89.6236607417669688 59.5499647610256844  5.6923043760711209
 -89.6251316687943671 59.5478906049019727 15.5271211782444727
 -89.6217427641577871 68.0552592575451314 -4.1890633007715259
 -89.6236735653542524 68.0605199839474295  5.6922753999103319
 -89.6251001149759077 68.0584927640579593 15.5269954801456862
 -89.6235746801795017 59.5506438633687409  0.7713716839572610
 -89.6239976276445844 59.5491796556006534 10.6074765673975762
 -89.6215539461721278 59.5437193590501863 20.5102316742350510
 -89.6235824352860249 68.0612065745087449  0.7713921268768812
 -89.6240191842182554 68.0597017068324419 10.6074221075017814
 -89.6215344982816333 68.0543396080359457 20.5100229882010296
 -89.6229090318022656 55.2948380995965536  3.2371905001352030
 -89.6238366385892533 55.2939449919522517 13.0641281052662741
 -89.7551194947792936 55.3473749991195021 22.7931927402584940
 -89.6229048300167221 63.8054337690346998  3.2371687660061217
 -89.6238424913401701 63.8044991572611764 13.0641373896022603
 -89.7551398216526195 63.8578382356842056 22.7929476775886641
 -86.0709544607382355 56.4348537062272513 -3.6788720078622976
 -86.1560443465607761 56.4592284335963797  6.1309759856222055
 -86.1550454068931799 56.4601457659746018 15.9648169846097723
 -86.0708434910258404 64.9454807194421875 -3.6789069064632351
 -86.1560423721325890 64.9698207067228850  6.1309514210376062
 -86.1550481494466567 64.9707036445751243 15.9647614895610594
 -86.1553196808583124 60.7131532465759705  3.6755921615492668
 -86.1564257165867815 60.7137042144953298 13.5029925717575789
 -86.3146559467808601 60.8400502736087958 23.3992638572137892
 -86.1553187023074685 69.2237123797715697  3.6756328675095622
 -86.1564216166197241 69.2242717167427486 13.5029773057072724
 -86.3147464583170461 69.3506953493829741 23.3991874893786793
 -86.1612793557053465 60.7044523808902028 -1.2409856479648740
 -86.1561026641997501 60.7144898817958278  8.5890132595805628
 -86.1621057208685244 60.7084833655794398 18.4194472007987144
 -86.1612328927202782 69.2150356374648794 -1.2408826731695228
 -86.1561193147624351 69.2250694427510780  8.5890011239048309
 -86.1620087985092198 69.2190264719291406 18.4193479970713412
 -86.1523207046246853 56.4617524759151905  1.2128559687432794
 -86.1566049914449366 56.4585344519712322 11.0463790760960432
 -86.1354716181750035 56.4210306539557109 20.8550104531613982
 -86.1523013525182080 64.9722837553099737  1.2128031368969534
 -86.1566089586864763 64.9690920361811379 11.0463508318512513
 -86.1354711252410397 64.9316798336630967 20.8549179842722801
 -86.1473722032133793 54.6963095336407861 -2.6772676039010430
 -86.1562285502332514 54.7122579724849700  7.1408406259172601
 -86.1534065323855884 54.7063565822665652 16.9736833399880460
 -86.1473682148137669 63.2069321656603407 -2.6773658018950410
 -86.1562379086908550 63.2228895799758774  7.1408488384203999
 -86.1534419404705005 63.2169698093331434 16.9736821092139287
 -86.1785210379064068 58.9624854551261279 -5.0873420498761854
 -86.1561729501450628 58.9671486455840466  4.6837454273521342
 -86.1572745599411860 58.9665460249264370 14.5107962502816221
 -86.1784770242468596 67.4732732114254645 -5.0872501321811239
 -86.1561475886136066 67.4777056472869674  4.6837152673817064
 -86.1572415146184483 67.4771048579773236 14.5107322712352804
 -86.1570064670958828 58.9673466562891662 -0.2465198543264117
 -86.1564885785325743 58.9669670046767322  9.5984573094231127
 -86.1628473814930516 58.9638311447690029 19.4590976272858889
 -86.1569586429360612 67.4778767995263422 -0.2465021984441159
 -86.1564854019312492 67.4775064476812219  9.5984405790284288
 -86.1627746644467862 67.4744357310745073 19.4588782262614259
 -86.1550034649139604 54.7112999593153617  2.2260081483173741
 -86.1564848286881499 54.7117926307238349 12.0557766181907962
 -86.1356765893423528 54.7713854269758329 21.8260187189042760
 -86.1550066922162472 63.2219467436814782  2.2259443937646148
 -86.1564953164015321 63.2224240144698015 12.0558074622235374
 -86.1357439870103718 63.2820134184399521 21.8260907705446314
 -86.1398328166908556 56.4468604589976621 -1.6853377377995256
 -86.1564652991010718 56.4591409780523961  8.1497950711831582
 -86.1489088957711147 56.4713343660018765 17.9706905240744561
 -86.1398132987065708 64.9574191161960073 -1.6853728645269448
 -86.1564902173447678 64.9697065810335914  8.1497857044171589
 -86.1488873551329419 64.9819437127948589 17.9706532815131084
 -86.1889166533178042 60.6937358394088733 -4.1820937255021740
 -86.1560677231877037 60.7145152887500856  5.6929014421477486
 -86.1567299511736877 60.7103744315652918 15.5204500509500534
 -86.1889006603666417 69.2043748216752164 -4.1820031080016964
 -86.1560782269125554 69.2251002450214514  5.6929066478310357
 -86.1567101934688822 69.2210110197365367 15.5203826530320335
 -86.1573236198182855 60.7136926944842443  0.7793970514286416
 -86.1563762858267523 60.7142007191376010 10.6069717168410449
 -86.1687840105927449 60.6740821337891418 20.4797676514952336
 -86.1573267786830570 69.2242735005827257  0.7794427096448950
 -86.1563819914314877 69.2247741588254542 10.6069425981431404
 -86.1686360780656884 69.1846935763877582 20.4795536004543983
 -86.1554783124779391 56.4591509479814704  3.2332493185252584
 -86.1569661041999240 56.4577128542638107 13.0666667380302304
 -85.9909713337094246 56.4461959149410575 22.8228636673065424
 -86.1554635230382075 64.9697182019785942  3.2332486210627365
 -86.1569639663223796 64.9682485970592012 13.0666325012463425
 -85.9910182218931141 64.9568525409822826 22.8228060677324152
 -83.1112065218048883 54.8891634277860376 -2.6667734553321525
 -83.1086326749794040 54.8738797605301087  7.1406202247357990
 -83.1108507535503520 54.8773335041860264 16.9736500014692879
 -83.1111988219363980 63.3997693538489955 -2.6669085371552872
 -83.1086229749472238 63.3844601385751858  7.1406148784800516
 -83.1108187727363230 63.3878983734927530 16.9736135810132680
 -83.0607200123843938 59.0500380330446717 -5.0707601362147967
 -83.1082443210433723 59.1294550307432871  4.6834295148521559
 -83.1086955350986898 59.1275045564245758 14.5109244680577021
 -83.0606746960824296 67.5607089681541879 -5.0708109295489558
 -83.1082339162827424 67.6400152477004468  4.6834165908951970
 -83.1086660579290992 67.6380683269869962 14.5108374232099617
 -83.1075768272649356 59.1288568518079600 -0.2371724308606136
 -83.1087646845753198 59.1289117467632934  9.5982394245563345
 -83.1075063512785590 59.1255055021529330 19.4446073188635111
 -83.1075334901882030 67.6394259425203046 -0.2371779867512926
 -83.1087755896052585 67.6394581451582155  9.5982138824184400
 -83.1074509289684045 67.6361047554260892 19.4444326101714005
 -83.1085386104654589 54.8759051090547274  2.2254989761233199
 -83.1089293728096550 54.8731761429767246 12.0553352728483834
 -83.1151637629483417 54.8860098311141229 21.8521451763171086
 -83.1085203544161999 63.3864770253631136  2.2254386812237970
 -83.1089045563045516 63.3837331065094887 12.0553591622610980
 -83.1151981281824419 63.3966643076428085 21.8522301706361404
 -83.0979006830790610 56.3969576913376400 -1.8220412853253238
 -83.1088239070356565 56.3784347238260963  8.0095411660693809
 -83.1041209947142647 56.3870662980577748 17.8365363819372291
 -83.0978784929243943 64.9075385637028575 -1.8221048565206295
 -83.1088345016132024 64.8889983658150555  8.0095309936207695
 -83.1040694107632305 64.8976502892451208 17.8364528436210499
 -83.1486147614624116 60.6308178768727259 -4.3377749746202703
 -83.1084537206411653 60.6340944804335180  5.5517751569342817
 -83.1094196411953021 60.6303533463987918 15.3822937224544685
 -83.1486064112378216 69.1414951645765257 -4.3377584407560414
 -83.1084569837599076 69.1446692959033697  5.5517635531292795
 -83.1094015977467677 69.1409388542964223 15.3822038190644914
 -83.1106704633715623 60.6316816501074101  0.6363188439988621
 -83.1087000647361833 60.6335399766591294 10.4669482296728340
 -83.1330237547558539 60.6366109883106006 20.2874791837805297
 -83.1106598481192265 69.1422458740410235  0.6363476619969272
 -83.1086971540336066 69.1440949693582780 10.4669217428133106
 -83.1330052082622473 69.1472289853004582 20.2873227647654772
 -83.1078768830253978 56.3804455688793880  3.0951184217749828
 -83.1092592278208855 56.3777852548064971 12.9241024194809491
 -83.0391305272309665 56.3729321331604893 22.8182536353686096
 -83.1078640841054153 64.8910042493858867  3.0950716905823690
 -83.1092332578619022 64.8883254544802526 12.9241031654957101
 -83.0391462129616826 64.8836181621278882 22.8182220711815802
 -83.0808412435142856 56.3741572603390324 -3.5821253682807619
 -83.1086899064083013 56.3786746303316590  6.2719944675651149
 -83.1080726927966111 56.3805158610923769 16.1003318846680834
 -83.0808025788931417 64.8848126726645376 -3.5822032680152427
 -83.1086878220784513 64.8892361469097807  6.2719815999823441
 -83.1080631249288189 64.8910573966736166 16.1002447594651308
 -83.1080992061448285 60.6335135641875951  3.8138545413918647
 -83.1088745216457170 60.6329820640136177 13.6446155767180599
 -83.2119213027484932 60.3930466720735382 23.5240244192904271
 -83.1080848315703378 69.1440762478312081  3.8138501729162870
 -83.1088455908041794 69.1435605997372846 13.6445405023548201
 -83.2121373007481537 68.9035165985361857 23.5241053829176465
 -83.1153613300272127 60.6326311805841485 -1.1006971178646987
 -83.1086492239440844 60.6335539391681664  8.7293249018821442
 -83.1182209583628691 60.6184793026162225 18.5527158980246902
 -83.1153239850358005 69.1431981248334466 -1.1006835302018987
 -83.1086659121349243 69.1441152511663546  8.7293065014837055
 -83.1181901934299532 69.1290559683636303 18.5525683945328126
 -83.1065571517605548 56.3824720538931743  1.3583134358994913
 -83.1090539624292859 56.3778635912930213 11.1864866823488498
 -83.0861838270541426 56.4224598390911396 21.0591475159142405
 -83.1065424902496375 64.8930242926474818  1.3582649437809309
 -83.1090454584925453 64.8884036977688368 11.1864937930629829
 -83.0861900530199620 64.9330441777116931 21.0590569514778281
 -84.5318294369480014 61.0320320457591308 -1.8229045837571605
 -84.5233221028154702 61.0489961549012889  8.0095417895950138
 -84.5291112176496853 61.0381019432913661 17.8371562964114574
 -84.5318012297588268 69.5426339116713024 -1.8228312329595719
 -84.5233367497293244 69.5595699040977422  8.0095287254650103
 -84.5290632269328910 69.5486906424189755 17.8370376706374678
 -84.4798383690992551 56.7974005845147190 -4.3365879005572463
 -84.5232788146810066 56.7939633959579524  5.5518363997121991
 -84.5234878854414973 56.7952046489073581 15.3822707546433328
 -84.4797787447027275 65.3080923497063708 -4.3366216088816625
 -84.5232703785759014 65.3045334982292616  5.5518272069356520
 -84.5234883302218662 65.3057401422021115 15.3821989540182962
 -84.5198770838810702 56.7973056996222780  0.6366318688627979
 -84.5238650185273031 56.7932231285194078 10.4669273152561821
 -84.4999628238007858 56.7876746131419665 20.2868228781696089
 -84.5198569652004892 65.3078460804566703  0.6365944137590911
 -84.5238570530808317 65.3037599584184818 10.4669187185356414
 -84.4999642090086667 65.2982368805221540 20.2867158084075605
 -84.5232629472149029 61.0481147967593003  3.0949680623733928
 -84.5234905569572419 61.0483130594868157 12.9242738497974869
 -84.5917083603329303 61.0516439216623539 22.8187064295441395
 -84.5232596173915880 69.5586863799536701  3.0950012799033457
 -84.5234848558249752 69.5588842379585230 12.9242353720588223
 -84.5917723370396004 69.5621936888156966 22.8185053114244631
 -84.5183211290781173 62.5399064540091700 -2.6673754747429368
 -84.5234601458767969 62.5536919026840437  7.1408175982127595
 -84.5221290391611859 62.5477834657422278 16.9741846628006563
 -84.5183130001299361 71.0505195968288490 -2.6672522240350225
 -84.5234506714077440 71.0642863613198301  7.1408136876178725
 -84.5221052122990244 71.0583996618178872 16.9741526739692112
 -84.5654663700488101 58.3775620558585615 -5.0701569408571352
 -84.5232941897931624 58.2987601374733160  4.6836248080576466
 -84.5242866969297779 58.2981609361374993 14.5109524000301313
 -84.5654560827242818 66.8882476168178215 -5.0701700485129502
 -84.5232787958017440 66.8093158771514197  4.6836101864790249
 -84.5242569082711697 66.8087071841623299 14.5108826612605455
 -84.5226060823337377 58.3001196556204491 -0.2369882206838951
 -84.5236765332868600 58.2980129498192738  9.5984150106153869
 -84.5251797592167264 58.2994096679053584 19.4444895904294768
 -84.5225560028743672 66.8106724520207251 -0.2369832076117181
 -84.5236822410326027 66.8085484621791466  9.5983977019607085
 -84.5250933224099441 66.8099758886758508 19.4443557700758625
 -84.5224276027898611 62.5527117781702771  2.2254508133282287
 -84.5237462384735636 62.5530993593919362 12.0556338876381695
 -84.5171194351582358 62.5385692096067345 21.8525828458342524
 -84.5224204302227946 71.0633037041672964  2.2255111104955994
 -84.5237387194359115 71.0636910955889363 12.0555898033992470
 -84.5170741107199888 71.0491733156300427 21.8524452067900476
 -84.5480187492881328 61.0548972529464962 -3.5832291722953680
 -84.5232217849507066 61.0490776316998947  6.2719702350076441
 -84.5247964043384172 61.0447545627695405 16.1007598330131749
 -84.5479989206811666 69.5655400105750772 -3.5831431539770415
 -84.5232259380070303 69.5596569976235912  6.2719640706936639
 -84.5247643697741609 69.5554178718748801 16.1006467084987968
 -84.5232560662513208 56.7948225626623611  3.8139223098353598
 -84.5239871562218212 56.7927291995382930 13.6445799853747758
 -84.4184699155089362 57.0323770011763216 23.5207356713450757
 -84.5232327587672643 65.3053752903170022  3.8139085878982830
 -84.5239810443973880 65.3032567500072503 13.6445346044813753
 -84.4185872281193781 65.5429729130704146 23.5205388323408009
 -84.5146209139245173 56.7962073243910268 -1.1002205138356922
 -84.5236827765274086 56.7935404645280713  8.7293442742779863
 -84.5150081425465629 56.8064752727481945 18.5523748129917969
 -84.5145922933331946 65.3067554359158748 -1.1002426325477763
 -84.5236990884523323 65.3040898076624217  8.7293284376591380
 -84.5149545415678602 65.3170481055797296 18.5522972844776675
 -84.5241558713773600 61.0462925329086730  1.3580748674570275
 -84.5235712191263957 61.0486107117023309 11.1866670110430562
 -84.5465754398081799 61.0018869573054943 21.0605500795563074
 -84.5241509613743744 69.5568679948007826  1.3581131983374903
 -84.5235718941611083 69.5591852000165431 11.1866289022196632
 -84.5465394582958965 69.5125413079519632 21.0603396080140186
 -85.5622924248687724 59.8780433414914128 -2.7119481075544187
 -85.5495943291987260 59.8782949351935230  7.1408413717892412
 -85.5528273023174535 59.8726776129553855 16.9704679083109760
 -85.5622415613826917 68.3886584996539995 -2.7118788727548879
 -85.5496137142785358 68.3888655161309345  7.1408302887088508
 -85.5527595223731083 68.3833114864553977 16.9703284967307191
 -85.4694009259586522 55.4685928509285731 -5.0962900451748938
 -85.5491595263864610 55.6235650927340401  4.6824090697224348
 -85.5494671708559196 55.6225897277277923 14.5159683025610242
 -85.4693428127138475 63.9793205299160377 -5.0963375007542737
 -85.5491447737910704 64.1341289931007452  4.6824048174003625
 -85.5494632542107354 64.1331196196091042 14.5159255876335020
 -85.5411963556631179 55.6200339313121503 -0.2309907869865634
 -85.5500237862982971 55.6228221255626707  9.5979539135061511
 -85.5313858580195472 55.6190676963343194 19.4007517979797832
 -85.5411785235014719 64.1305711377537335 -0.2310410002736927
 -85.5500279077030115 64.1333749572851133  9.5979420803220510
 -85.5313854158600435 64.1296415015214336 19.4007173547270284
 -85.5498865148254595 59.8760816130068676  2.2263359163429111
 -85.5500386851227290 59.8778639495539764 12.0550246300524329
 -85.6288685390513251 59.8570875571165644 22.0180811555411644
 -85.5498804229579832 68.3866444868175734  2.2263646110349411
 -85.5500386095584133 68.3884330518152410 12.0549949740316027
 -85.6288501436751801 68.3676945564414780 22.0177736494134351
 -85.5544191699207346 62.3687465810484838 -1.2257602887960175
 -85.5497074444313341 62.3866161128855907  8.5890684070699042
 -85.5468587079467255 62.3804626658522352 18.4300708655738212
 -85.5543976520619935 70.8793570532427992 -1.2256495718291249
 -85.5497085231401115 70.8972030694833677  8.5890614903555687
 -85.5467760868519775 70.8910141329006507 18.4299733999988895
 -85.5507115509684155 58.1206171040006225 -3.6882962488851292
 -85.5498364550763881 58.1311923226445018  6.1317325459363312
 -85.5501322971590383 58.1332234979289879 15.9590363155546093
 -85.5506245632084728 66.6312675825934946 -3.6882873076446825
 -85.5498327581103410 66.6417678460503566  6.1317186926418925
 -85.5501114717978766 66.6437807993974900 15.9589712730990794
 -85.5494210621592543 58.1357761869386778  1.2081634626622935
 -85.5502028221110891 58.1306744126631472 11.0468518117142498
 -85.5558582901075084 58.0863205680060659 20.8871721527654408
 -85.5493927371898764 66.6462945146299859  1.2081524461713786
 -85.5501985921809762 66.6412129335380570 11.0468430977613412
 -85.5557923413917507 66.5969688324518927 20.8870138204964668
 -85.5484522598382711 62.3860610407295297  3.6745403908310341
 -85.5496478005499341 62.3858581997344430 13.5038611639127097
 -85.5762314684179870 62.5535035680466720 23.2542349151249290
 -85.5484564103792877 70.8966248859139228  3.6746082809799296
 -85.5496376172679760 70.8964401593888738 13.5038241090219646
 -85.5761567719271596 71.0640568020625665 23.2541046479093616
 -85.5310754470190773 62.4164231311778792 -4.1349356206198369
 -85.5495963470795857 62.3866372728741538  5.6927329440962167
 -85.5479601169585493 62.3832788993839316 15.5235537142757778
 -85.5311029452010558 70.9270460463677779 -4.1348247791507315
 -85.5495982489608338 70.8972206489000598  5.6927315260119498
 -85.5479459091024239 70.8939423580774388 15.5235187149363583
 -85.5496217083784671 58.1323681768899547  3.2350440960294065
 -85.5510843386891935 58.1296003152530929 13.0637724854814063
 -85.5403991051971957 58.1145716142778568 22.7343027469385781
 -85.5495997743251593 66.6429142590284869  3.2350086237094673
 -85.5510600944953978 66.6401318938998628 13.0637269235039497
 -85.5403724743342337 66.6251998334846007 22.7342508281381903
 -85.5464506755016316 58.1235561906943161 -1.6935895172894362
 -85.5499675764140903 58.1312151813141895  8.1499893377524053
 -85.5507342891449838 58.1455273636618983 17.9941897141405072
 -85.5464039317621712 66.6341124764002899 -1.6935935493710976
 -85.5499848955045223 66.6417665072365679  8.1499664670677561
 -85.5506656584421279 66.6561131553814477 17.9940444792324712
 -85.5490124427999916 62.3846249883563502  0.7764020950615407
 -85.5499623622371814 62.3862862161234233 10.6073503677052567
 -85.5460119395365268 62.3469391008654696 20.4269453392363154
 -85.5490084918096159 70.8952157555800255  0.7764621908617380
 -85.5499695254157189 70.8968763078026143 10.6073051057938965
 -85.5459188345108288 70.8576370453846636 20.4267688295657308
 -82.0756354629991591 55.0602058730436212 -1.2249823253539931
 -82.0824439533469530 55.0407187014637955  8.5888055161472732
 -82.0862887626773841 55.0446492053528118 18.4291542806510655
 -82.0756225770316235 63.5707769833881500 -1.2250934842149090
 -82.0824454158372703 63.5512966227040579  8.5887959496399304
 -82.0862271961988057 63.5552349969264228 18.4291045531377229
 -82.0765523676115549 59.3082449711793203 -3.6891349888021709
 -82.0818583271889963 59.2967775668779851  6.1315719286065935
 -82.0828392843016275 59.2922561369676373 15.9590126321527368
 -82.0765013912678967 67.8188599585906786 -3.6892243028734466
 -82.0818658107705090 67.8073489905074069  6.1315588415372870
 -82.0828135067257136 67.8028209096895580 15.9589302145285732
 -82.0811025441949482 59.2932864406226230  1.2080895850069269
 -82.0823310829646289 59.2960006055940880 11.0466238811324011
 -82.0761065247265265 59.3382378620482527 20.8872102677084683
 -82.0810872737315265 67.8038307344388045  1.2081061753073199
 -82.0823206627621573 67.8065377136392868 11.0465829441756167
 -82.0761498986984748 67.8488631677298173 20.8870991564459771
 -82.0827207319615013 55.0424288908881891  3.6746245193187419
 -82.0829931379804947 55.0401491379761794 13.5035152686725510
 -82.0536032944526283 54.8715011542271327 23.2524409085578476
 -82.0827121855275266 63.5529857228412922  3.6745513984128206
 -82.0829611521465381 63.5506906896851120 13.5035014656962495
 -82.0535448489991381 63.3823223945747358 23.2524149403149671
 -82.0670227121186144 57.5511997104908488 -2.7108688300733554
 -82.0823930062203146 57.5492859811090725  7.1409867476312501
 -82.0801293715430234 57.5526823608886815 16.9702248452857312
 -82.0669892681109303 66.0618230206833061 -2.7108868262950860
 -82.0824083841972651 66.0598400471933758  7.1409728374947630
 -82.0801168022883303 66.0632414611761618 16.9701037398213437
 -82.1577165095619648 61.9610896676101959 -5.0967739286860816
 -82.0823851336498223 61.8045879960718452  4.6825497830818996
 -82.0833558597715438 61.8030301291359621 14.5159848223667591
 -82.1575936957700890 70.4718612926544665 -5.0965872331934001
 -82.0823816868665261 70.3151636066902341  4.6825424116287806
 -82.0833433178161442 70.3136338896949553 14.5159184387945501
 -82.0890959254775794 61.8087953929025957 -0.2311447089583859
 -82.0824512407508848 61.8041010781526197  9.5980530468660845
 -82.1018717741682309 61.8055573934571001 19.4008234679589968
 -82.0890810018298538 70.3193545634294850 -0.2310947784862594
 -82.0824524791078574 70.3146771145643328  9.5980328239265305
 -82.1018662943741333 70.3161487962970568 19.4006824279547310
 -82.0810263988976203 57.5525885922969778  2.2265787619360773
 -82.0827085052166723 57.5484836991261020 12.0550288246099431
 -82.0031301490419793 57.5671982795866057 22.0160879934638132
 -82.0810156572903793 66.0631361827595072  2.2265281862507518
 -82.0826819754669401 66.0590031929062320 12.0550291845271467
 -82.0032100110226025 66.0778397575580243 22.0159445238445066
 -82.0983935374200939 55.0127006044060707 -4.1341014588095728
 -82.0823475230382371 55.0412008072054562  5.6925397321652058
 -82.0849534074663012 55.0419895729522821 15.5228514687522967
 -82.0984047618802890 63.5233504503893585 -4.1342364040700703
 -82.0823433734439476 63.5517639684659130  5.6925268142682457
 -82.0849229540095848 63.5525126991666625 15.5228211413536954
 -82.0817156581902196 59.2960489490034561  3.2348434710007163
 -82.0817516082610865 59.2963208548329135 13.0636729667269247
 -82.0903951454816365 59.3104761403473404 22.7344227413943933
 -82.0817018326954582 67.8066043485881380  3.2348518661707222
 -82.0817145854176857 67.8068977914220454 13.0636053310669400
 -82.0904847233834971 67.8207594409324486 22.7346747582689268
 -82.0832236572956901 59.3051986319084818 -1.6938241400125857
 -82.0823506252942963 59.2959928945215538  8.1498144744220795
 -82.0822365310111053 59.2797884910970723 17.9939401218742923
 -82.0831760184938020 67.8157647487239501 -1.6938249654502626
 -82.0823770462807687 67.8065538837792587  8.1497859181091457
 -82.0822012031050434 67.7903937830584198 17.9938189098455155
 -82.0817020208763779 55.0441613156813148  0.7766407265841929
 -82.0826624844078623 55.0401955272968664 10.6071166363577163
 -82.0873246360431210 55.0777292982520734 20.4246955361483238
 -82.0816868966341389 63.5547273972280706  0.7765874841848996
 -82.0826620120693207 63.5507434363425929 10.6071244668546640
 -82.0873542881802365 63.5881808297683619 20.4247034398228884
