(written by ASE)

1440 atoms
2 atom types

0.0      12.221925000000001  xlo xhi
0.0               17.021231  ylo yhi
0.0      52.240924999999997  zlo zhi

Atoms # atomic

1  1  10.889588511900001  4.8004637364679992  26.996751775950003  
2  1  10.912651284375002  4.8123615769369996  34.505810094524996  
3  1  10.91870113724999  4.8303530181039971  42.021973178899998  
4  1  10.889539624200006  13.311164342623004  26.996804016874997  
5  1  10.912639062449989  13.322994098167994  34.505757853599995  
6  1  10.918688915324989  13.340934475641999  42.022025419824999  
7  1  1.6597618588499998  4.8281232368430027  27.025432043774998  
8  1  1.7446309060499978  4.8128551926360004  34.508004213374996  
9  1  1.7417709755999997  4.8183190077870002  42.050131037474998  
10  1  1.659578529974985  13.338738736842995  27.025484284699999  
11  1  1.7446553498999904  13.323504735097998  34.507951972450002  
12  1  1.7417709755999997  13.328917486555998  42.050131037474998  
13  1  4.8215738563499908  4.8603444271260017  26.972982155074998  
14  1  4.7995010597999999  4.8130083837149993  34.505548889899998  
15  1  4.7850303005999955  4.8079530781080031  42.017741663974995  
16  1  4.8215127467250039  13.371079075742996  26.973034395999999  
17  1  4.7994766159499962  13.323606862483997  34.505496648974997  
18  1  4.7850669663749903  13.318551556877001  42.017793904899996  
19  1  7.8677908871999991  4.8425912831929994  26.989855973850002  
20  1  7.8564367188749964  4.8125828529400003  34.503511493824995  
21  1  7.8580133472  4.8131615747939973  41.9835238581  
22  1  7.8677175556499996  13.353308910579006  26.989803732925004  
23  1  7.85638783117499  13.323147289247  34.503511493824995  
24  1  7.8580500129750046  13.323743032332008  41.983576099024994  
25  1  10.937461792124985  7.6861581340530032  26.968750640149999  
26  1  10.913323490249986  7.6497497209440013  34.505392167124995  
27  1  10.931631933899984  7.6602688417019973  42.018786482475001  
28  1  10.937425126350002  16.196790655283991  26.968646158299993  
29  1  10.913323490249986  16.160382242175004  34.505392167124995  
30  1  10.931619711975005  16.170833278008999  42.018838723399995  
31  1  1.7443742456250053  7.6478603643030016  26.949996148074998  
32  1  1.7451564488249953  7.648881638163  34.507325081350004  
33  1  1.7448386787750052  7.6496986572510011  42.070766202850002  
34  1  1.7443498017749912  16.15854394922701  26.950048388999999  
35  1  1.7451320049750028  16.159531180624999  34.507325081350004  
36  1  1.7448264568500034  16.160263093558001  42.070766202850002  
37  1  4.7735783568750021  7.6106519533370012  26.968228230899999  
38  1  4.79888996354999  7.6479965341509981  34.505548889899998  
39  1  4.7799215359499874  7.6388561331039977  42.018786482475001  
40  1  4.7735661349500003  16.121369580723002  26.968280471825  
41  1  4.7988166319999905  16.158629055381994  34.505548889899998  
42  1  4.7799582017250035  16.149386526949002  42.018786482475001  
43  1  7.8555445183499915  7.6492050415520003  26.994714379874996  
44  1  7.8560945049750028  7.6488646169319985  34.503511493824995  
45  1  7.8558134006999962  7.6495114237099981  41.983262653474995  
46  1  7.855446742949999  16.159752456627999  26.994766620799997  
47  1  7.8560822830499903  16.159463095701003  34.503563734749996  
48  1  7.8558378445499892  16.160058838786004  41.983314894399996  
49  1  10.890908479800002  10.436976297193999  26.973922491725002  
50  1  10.912810169400002  10.484754892611003  34.505496648974997  
51  1  10.926608722724987  10.491274024083999  42.017584941199999  
52  1  10.890896257875001  1.9262586698079989  26.973818009874996  
53  1  10.912773503624987  1.9741393926109945  34.505496648974997  
54  1  10.926608722724987  1.9806244816219938  42.017532700274998  
55  1  1.8285833088749872  10.468720893008998  27.025745489324994  
56  1  1.7457797669999957  10.485027232307003  34.508056454299997  
57  1  1.748395258949992  10.481027243022002  42.049974314699995  
58  1  1.8286933062000026  1.9581224142399929  27.025641007474999  
59  1  1.7457675450750048  1.9744117323070023  34.508056454299997  
60  1  1.748395258949992  1.9703606793289954  42.049922073775001  
61  1  4.821781629074998  10.497027200162002  26.9962293667  
62  1  4.7995743913499984  10.485537869236998  34.505862335449997  
63  1  4.7929501079999959  10.468823020394998  42.02207766075  
64  1  4.821769407149997  1.9865478700100054  26.9962293667  
65  1  4.7995743913499984  1.9749564116990028  34.505862335449997  
66  1  4.7929378860750047  1.9581394354709953  42.022025419824999  
67  1  7.8429681575250028  10.454406037738  26.988967878124999  
68  1  7.8557767349249916  10.485248508310002  34.503511493824995  
69  1  7.8535156788000009  10.485827230164  41.9835238581  
70  1  7.8430781548499962  1.9437054315830036  26.98902011905  
71  1  7.8557645129999898  1.9746500295410052  34.503511493824995  
72  1  7.8535034568749991  1.9751947089330057  41.9835238581  
73  1  9.3745098012000021  3.3856079520549982  28.556456832749994  
74  1  9.3867439481249964  3.3940675038620012  36.065828596874994  
75  1  9.3875750390250055  3.4134546859709975  43.545527515599993  
76  1  9.3745220231250048  11.896206430824003  28.556509073675002  
77  1  9.3867439481249964  11.904700025093003  36.06577635595  
78  1  9.3875750390250055  11.924053164740004  43.545579756524994  
79  1  0.21131708325000034  3.384416465884998  28.575524770374997  
80  1  0.21977465534999932  3.3943058010959968  36.070321316424995  
81  1  0.20602498972498792  3.4300163437339997  43.597141549500002  
82  1  0.21126819555000437  11.895100050809001  28.575629252224996  
83  1  0.21978687727499016  11.904921301095998  36.070269075500001  
84  1  0.20602498972498792  11.940648864965002  43.597141549500002  
85  1  3.2784213839249858  3.4021015248939981  28.575054602049995  
86  1  3.2705993519250001  3.3934036758529995  36.070321316424995  
87  1  3.2837256993749895  3.3592420652360016  43.597454995050001  
88  1  3.2783724962250007  11.912751067356004  28.575159083900001  
89  1  3.2705993519250001  11.904002154621997  36.070269075500001  
90  1  3.2837501432250034  11.869908628929002  43.597507235975002  
91  1  6.336897005549992  3.4010802510339988  28.555934423499998  
92  1  6.3255672810750045  3.3934547395459989  36.065828596874994  
93  1  6.3237217703999962  3.3752760648379976  43.545579756524994  
94  1  6.3368481178499962  11.911695751033999  28.555934423499998  
95  1  6.3255672810750045  11.904053218314997  36.06577635595  
96  1  6.3237828800250044  11.885891564837998  43.545631997450002  
97  1  9.3912538384499982  6.2348769152999974  28.551389463024996  
98  1  9.3868295015999976  6.2311152232490006  36.065358428549992  
99  1  9.3669322076999855  6.2555747321960027  43.536437594649996  
100  1  9.3912171726749936  14.745509436530993  28.551389463024996  
101  1  9.3868539454499906  14.741713702018005  36.065306187624998  
102  1  9.3669444296249864  14.766156189734007  43.536542076499998  
103  1  0.20254174110000039  6.2351832974580024  28.558755433449999  
104  1  0.22006798154999688  6.2313875629450015  36.070321316424995  
105  1  0.21338258857499598  6.2676087425129996  43.678010501399996  
106  1  0.20249285339999357  14.745849861151003  28.558807674375  
107  1  0.22011686925000373  14.741986041713998  36.070269075500001  
108  1  0.21337036665000511  14.778207221282004  43.678062742324997  
109  1  3.2544908547749953  6.2329024525040015  28.545590720349995  
110  1  3.2698049267999973  6.230706713704997  36.069903389025001  
111  1  3.2501276275499933  6.2483577302519997  43.629948850399998  
112  1  3.2543808574500015  14.743534973735011  28.545642961274996  
113  1  3.2698049267999973  14.741271150011997  36.069903389025001  
114  1  3.250139849474984  14.758939187790002  43.629948850399998  
115  1  6.3305416045500049  6.2352513823819971  28.543083155950001  
116  1  6.3257383880249956  6.230315225392002  36.065253946699997  
117  1  6.326972802449994  6.2050216761259973  43.536124149099997  
118  1  6.3304560510750036  14.745917946074997  28.543135396875002  
119  1  6.3257017222500016  14.740879661698996  36.065253946699997  
120  1  6.3270461339999935  14.715586112433005  43.536176390024998  
121  1  9.3806818733249973  9.0621033844000003  28.543187637799996  
122  1  9.3865850630999965  9.0678054967850024  36.065253946699997  
123  1  9.3842751192749994  9.0940692562180008  43.536176390024998  
124  1  9.3806818733249973  0.55152192686200452  28.543187637799996  
125  1  9.3865972850249992  0.55717297555399314  36.065253946699997  
126  1  9.3842384534999947  0.58343673498700566  43.536228630949999  
127  1  0.23529650009999786  9.0637033801139975  28.546165370524996  
128  1  0.22054463662499837  9.0675331570890023  36.069955629950002  
129  1  0.23852308829999297  9.0515672424110019  43.629635404849992  
130  1  0.23525983432500361  0.55310490134499901  28.546113129599998  
131  1  0.22056908047500179  0.55690063585800043  36.069955629950002  
132  1  0.23846197867498442  0.54093472118000618  43.629583163924998  
133  1  3.2871722822249936  9.0616438111630035  28.558546469749999  
134  1  3.2702571380249954  9.0668352866180033  36.070321316424995  
135  1  3.2757570042750044  9.0320438904540001  43.677958260475002  
136  1  3.2870989506749941  0.55107937485600311  28.558546469749999  
137  1  3.2702571380249954  0.55621978661799598  36.070321316424995  
138  1  3.2757570042750044  0.52139434799199613  43.678010501399996  
139  1  6.3197374228500038  9.062477851481999  28.550762571924999  
140  1  6.3254695056750014  9.0669884776970022  36.065358428549992  
141  1  6.3439490562750009  9.0433459878380003  43.536542076499998  
142  1  6.3196640913000044  0.5519985213299955  28.550762571924999  
143  1  6.3254450618249871  0.55635595646599989  36.065410669475  
144  1  6.3439735001249939  0.53267942414500125  43.536542076499998  
145  1  10.905892559850001  3.3873100751550016  30.75203842865  
146  1  10.920742198725003  3.3952419688009994  38.261775879249996  
147  1  10.826291162325001  3.4759226037409987  45.809492482324998  
148  1  10.905831450225003  11.897925575155002  30.75203842865  
149  1  10.920717754875  11.905891511262997  38.261775879249996  
150  1  10.826352271949998  11.986401933893003  45.809544723249992  
151  1  1.7453764434750043  3.3933015484669999  30.759456639999996  
152  1  1.7451075611249884  3.3939143127830027  38.270761318350004  
153  1  1.745034229574989  3.3950206927979987  45.897675163724998  
154  1  1.7453153338499958  11.903900027235998  30.759456639999996  
155  1  1.7450953391999977  11.904529812783002  38.270761318350004  
156  1  1.7450220076499874  11.905687256490998  45.897622922799997  
157  1  4.8057097976999987  3.3992249368549965  30.751881705874993  
158  1  4.7914956989249982  3.3925526143030011  38.261723638324995  
159  1  4.8848834278499931  3.3134379326150016  45.809596964174993  
160  1  4.8057709073249963  11.909823415624002  30.751881705874993  
161  1  4.7915201427749912  11.903151093071999  38.261671397399994  
162  1  4.8849445374750013  11.823951305229002  45.809753686950003  
163  1  7.8556300718250034  3.3934036758529995  30.7496353461  
164  1  7.8561067269000047  3.3938972915520003  38.252842681074995  
165  1  7.8559233980249896  3.3928249539990016  45.777259831599999  
166  1  7.8555811841249961  11.904002154621997  30.749583105174999  
167  1  7.8561311707499977  11.904495770320999  38.252842681074995  
168  1  7.8560945049750028  11.903185135534004  45.777521036224996  
169  1  10.911245762999989  6.2319492635679961  30.749478623324997  
170  1  10.920375540974996  6.2322896881879988  38.261410192775003  
171  1  10.697105415074997  6.3979403082799999  45.700517912774998  
172  1  10.911123543750005  14.742598806030001  30.749478623324997  
173  1  10.920387762899987  14.742905188188006  38.261357951849995  
174  1  10.697129858924988  14.908623893204009  45.700622394625  
175  1  1.7399987964750017  6.2327662826559971  30.750732405524996  
176  1  1.7453397776999884  6.2303322466229973  38.270604595574994  
177  1  1.8417096563249875  6.0974134537439983  45.815447947774999  
178  1  1.7399376868500041  14.743466888811001  30.750784646449997  
179  1  1.7453275557749974  14.740947746622989  38.270552354649993  
180  1  1.8416852124749949  14.608097038668008  45.815447947774999  
181  1  4.8009188031000019  6.229736503537997  30.746396408749998  
182  1  4.7908479368999837  6.2294131001489976  38.261305710925001  
183  1  4.8425344577250007  6.1280346483130002  45.7584530986  
184  1  4.8009310250250037  14.740369024768992  30.746448649674999  
185  1  4.7908357149749934  14.740011578918002  38.261305710925001  
186  1  4.8425833454249965  14.638616105851003  45.7584530986  
187  1  7.8563389434750048  6.2306726712429992  30.747545709100002  
188  1  7.8564856065750037  6.2304513952399985  38.252111308125002  
189  1  7.8491891173500044  6.2199492957129969  45.726847338974999  
190  1  7.8562533900000036  14.74132221370499  30.747493468174994  
191  1  7.8564978285000056  14.741066895239999  38.252111308125002  
192  1  7.8492380050499895  14.730530753250999  45.7268995799  
193  1  10.910879105250004  9.0673459235480003  30.746605372449999  
194  1  10.921377738824996  9.0691331528029995  38.261410192775003  
195  1  10.867650156524997  9.1725371311280011  45.757408280099995  
196  1  10.910781329849989  0.55674744477899418  30.746553131524998  
197  1  10.921389960749986  0.55848361034099492  38.261410192775003  
198  1  10.867564603049995  0.66197269482099264  45.757408280099995  
199  1  1.7507540904749961  9.064299123198996  30.750732405524996  
200  1  1.7448631226249978  9.0682310275600013  38.270604595574994  
201  1  1.6446922253249994  9.2038732173989963  45.813410551699995  
202  1  1.750717424699991  0.55375170812299868  30.750732405524996  
203  1  1.7448753445499885  0.55758148509800487  38.270604595574994  
204  1  1.6445211183749864  0.6931045263200053  45.813358310775001  
205  1  4.8007110303749947  9.0654906093689966  30.74911293685  
206  1  4.7918379128249917  9.0661884798399957  38.261357951849995  
207  1  5.0124681029249913  8.9009293480609966  45.700465671849997  
208  1  4.8007110303749947  0.55487510936900453  30.74911293685  
209  1  4.7918134689749996  0.55553893737800664  38.261357951849995  
210  1  5.0126147660250009  0.39022874190600004  45.700465671849997  
211  1  7.8547134274500054  9.0666991167699997  30.747493468174994  
212  1  7.8558378445499892  9.068026772788004  38.252163549050003  
213  1  7.8613988204249843  9.0780352566159976  45.726533893425  
214  1  7.8547134274500054  0.55610063800099441  30.747493468174994  
215  1  7.8558378445499892  0.55737723032600661  38.252215789974997  
216  1  7.8613743765749922  0.56757294769499556  45.726533893425  
217  1  9.3849473251499962  4.7388639014789984  24.756138502699997  
218  1  9.3843851165999936  4.811170090766999  32.310698666949996  
219  1  9.3954337367999958  4.8149828465110032  39.812965665274994  
220  1  9.3850084347749938  13.249445359017001  24.756034020849999  
221  1  9.3842751192749994  13.321768569535989  32.310594185100001  
222  1  9.3954459587249861  13.32558132528  39.812965665274994  
223  1  0.10667296139998457  4.6710513171749986  24.798401411025001  
224  1  0.21500810459999523  4.8107615812230025  32.31425104985  
225  1  0.22505452694999917  4.8178424133190019  39.835168058399994  
226  1  0.10662407369999945  13.181751923329996  24.798505892874996  
227  1  0.2149592168999884  13.321377081223002  32.31425104985  
228  1  0.22504230502499745  13.328440892088  39.835168058399994  
229  1  3.0501647126249845  4.8170594366929986  24.924981172299997  
230  1  3.272224867949999  4.8120041310860024  32.3135196769  
231  1  3.2630706461250005  4.8100637107520035  39.833026180475002  
232  1  3.0501769345499858  13.327521745613993  24.925190135999998  
233  1  3.2722615337249934  13.322619631086003  32.3135196769  
234  1  3.2630706461250005  13.320662189521  39.833026180475002  
235  1  6.4604728892249943  4.8379615083610021  24.7638701596  
236  1  6.3293316339749985  4.811987109855  32.310437462325005  
237  1  6.3173297036250036  4.8094509464360007  39.81249549695  
238  1  6.4602651164999871  13.348679135747009  24.763817918674999  
239  1  6.3293194120499967  13.322602609855  32.310332980474996  
240  1  6.3173663693999975  13.320049425204997  39.81249549695  
241  1  9.40920784627499  7.5939371044950006  24.859314329575  
242  1  9.3844462262249912  7.6489327018560003  32.310280739550002  
243  1  9.3932948999249906  7.6529667336029972  39.810876028274997  
244  1  9.4092445120500052  16.104654731880998  24.859314329575  
245  1  9.384336228899997  16.159565223087004  32.310280739550002  
246  1  9.3933071218499915  16.163514148679003  39.810928269199998  
247  1  0.19107757545000453  7.6325412564029991  24.735033168999998  
248  1  0.2172569387999839  7.6492901477069974  32.312527099324996  
249  1  0.23148325949998591  7.6510773769619975  39.835899431350001  
250  1  0.19100424390000514  16.143037607785999  24.735033168999998  
251  1  0.21717138532499364  16.159956711399996  32.312474858399995  
252  1  0.23147103757498422  16.161641813268997  39.835899431350001  
253  1  3.2963631698249971  7.6635879817469998  24.735137650849996  
254  1  3.2732270657999982  7.6482007889230035  32.312631581174998  
255  1  3.2585851996499922  7.6478263218409968  39.835794949499999  
256  1  3.2964609452249998  16.174152418054007  24.735294373625003  
257  1  3.2732881754249847  16.158901395078008  32.312631581174998  
258  1  3.2585851996499922  16.158390758148006  39.835794949499999  
259  1  6.3012578722500043  7.7031963862840032  24.857903824600001  
260  1  6.3271683532500003  7.6487795107770014  32.310332980474996  
261  1  6.3188452223249874  7.6459029227380002  39.810823787349996  
262  1  6.3008667706500034  16.213828907514998  24.857956065524995  
263  1  6.3271927971000039  16.159463095701003  32.310385221399997  
264  1  6.3188696661750017  16.156467359044992  39.810876028274997  
265  1  9.2544660538500043  10.462048570457004  24.765855314749999  
266  1  9.3823196112749869  10.485571911699003  32.310280739550002  
267  1  9.394724865150005  10.489401688674002  39.812599978799994  
268  1  9.2543438345999878  1.9513309430709962  24.7657508329  
269  1  9.3823196112749869  1.9749904541610075  32.310332980474996  
270  1  9.394724865150005  1.9787521462120041  39.812547737874993  
271  1  0.43923154064999764  10.478899589147  24.923675149175001  
272  1  0.21819802702499602  10.485401699389001  32.313415195049998  
273  1  0.22709558842499136  10.488891051743998  39.833078421400003  
274  1  0.43948820107500092  1.9680968556059963  24.923466185475  
275  1  0.21819802702499602  1.9747861993889941  32.313415195049998  
276  1  0.22712003227499478  1.978224488051006  39.833078421400003  
277  1  3.3810000004499954  10.625077920975  24.797722278999998  
278  1  3.2753781245999947  10.486746376638001  32.314198808924999  
279  1  3.2651361514499855  10.481078306715002  39.835115817474993  
280  1  3.3809511127499885  2.1144453997439983  24.797722278999998  
281  1  3.2754147903749891  1.9761649191000055  32.314198808924999  
282  1  3.2651361514499855  1.9704117430220025  39.835063576549999  
283  1  6.3241617597000035  10.559716393935004  24.755981779924998  
284  1  6.3273516821250038  10.486422973249001  32.310489703249999  
285  1  6.3166452758250058  10.483818724906  39.812965665274994  
286  1  6.324296200874989  2.0490157877799988  24.756242984549999  
287  1  6.3273394602000019  1.9758755581729952  32.310541944175007  
288  1  6.3166208319749915  1.9731521612130076  39.812965665274994  
289  2  10.907713626674985  4.8058084030019979  29.159264866325  
290  2  10.914093471524986  4.8129573200219991  36.664666320149998  
291  2  10.906002557174995  4.8666082401340001  44.193889635775001  
292  2  10.907689182825003  13.316440924233008  29.159212625399999  
293  2  10.914117915375  13.323589841252995  36.664614079225004  
294  2  10.906027001024988  13.377206718902999  44.194046358549997  
295  2  1.7372244195000046  4.8106934962990007  29.166735318599994  
296  2  1.7449486760999879  4.8120211523169969  36.668688871375004  
297  2  1.7453764434750043  4.7722425354700002  44.214368078374996  
298  2  1.737212197575003  13.321394102453997  29.166787559525002  
299  2  1.7449486760999879  13.322602609855  36.668636630449996  
300  2  1.7454008873249969  13.282858035469999  44.214368078374996  
301  2  4.7994155063249986  4.8194253878019966  29.145473262124998  
302  2  4.7981810918999992  4.8115956215419979  36.664196151825003  
303  2  4.8087041693250052  4.7640893658210022  44.183389209849999  
304  2  4.7993055090000043  13.330074930264001  29.145473262124998  
305  2  4.7981810918999992  13.322177079080008  36.664196151825003  
306  2  4.8087408350999885  13.274670823359005  44.183441450775  
307  2  7.8579277937249881  4.8155615683650002  29.154145255674997  
308  2  7.8561922803749953  4.8120041310860024  36.6599646369  
309  2  7.8460114168499944  4.8042594709810009  44.126446601599994  
310  2  7.8578300183249956  13.326177068365  29.154040773824999  
311  2  7.8562045022999971  13.322619631086003  36.6599646369  
312  2  7.846048082624999  13.314840928519004  44.126551083449996  
313  2  10.912797947475001  7.6570858715049983  29.152316823299998  
314  2  10.914374575799993  7.6500561031019982  36.664614079225004  
315  2  10.89430617495  7.7185325154150002  44.154082050924998  
316  2  10.912736837850003  16.167735413967012  29.152264582374997  
317  2  10.914386797724994  16.160654581871004  36.664561838299996  
318  2  10.894281731099996  16.229148015415007  44.154134291849999  
319  2  1.7449975637999948  7.6482688738469982  29.152369064224999  
320  2  1.7451931145999895  7.6492050415520003  36.669472485249997  
321  2  1.7442520263749883  7.6500561031019982  44.323499370699999  
322  2  1.7449364541749972  16.158986501233006  29.15242130515  
323  2  1.7452175584500038  16.159786499090004  36.669420244324996  
324  2  1.7442398044499974  16.160654581871004  44.323447129774998  
325  2  4.7988166319999905  7.6398263432709967  29.152003377749999  
326  2  4.7979122095500051  7.6482518526160028  36.664614079225004  
327  2  4.8168806371499864  7.5810350113970033  44.153402918899999  
328  2  4.798718856599999  16.150475885733002  29.152055618675  
329  2  4.7979122095500051  16.158850331385  36.664614079225004  
330  2  4.8169173029250025  16.091582426472993  44.153455159824993  
331  2  7.8556911814499903  7.648609298467  29.157018506549999  
332  2  7.8561311707499977  7.6491369566279985  36.660069118749995  
333  2  7.8554589648749902  7.6494092963240066  44.132349826125001  
334  2  7.8556178498999909  16.159309904621988  29.156966265624998  
335  2  7.8561311707499977  16.15973543539701  36.660069118749995  
336  2  7.8554834087250045  16.160007775093003  44.132402067050002  
337  2  10.912211295075005  10.477657039284001  29.145786707675001  
338  2  10.914117915375  10.486712334176003  36.664248392749997  
339  2  10.902287091974996  10.535954755459001  44.182919041524997  
340  2  10.912186851225002  1.9670415392839999  29.14573446675  
341  2  10.914130137300003  1.9760798129449935  36.664248392749997  
342  2  10.902250426199991  2.0253732979210048  44.182866800600003  
343  2  1.752526269600005  10.486354888325  29.166839800449996  
344  2  1.7454131092499878  10.486354888325  36.668688871375004  
345  2  1.7437142616749892  10.528295201509003  44.213427741724999  
346  2  1.7525018257500016  1.9757393883250063  29.166839800449996  
347  2  1.7454131092499878  1.9757564095559936  36.668688871375004  
348  2  1.7436775958999948  2.0176116165849933  44.213427741724999  
349  2  4.8037542896999863  10.491444236393999  29.158481252449999  
350  2  4.7981810918999992  10.485316593233998  36.664614079225004  
351  2  4.8049764821999936  10.432703968212998  44.19383739485  
352  2  4.8037054020000012  1.9808798000869992  29.158533493374996  
353  2  4.7981810918999992  1.9747010932339972  36.664666320149998  
354  2  4.8049398164249997  1.9220203832889962  44.193889635775001  
355  2  7.8536134541999925  10.481776177186001  29.154093014750003  
356  2  7.8560700611249885  10.486184676014998  36.6599646369  
357  2  7.864979844449997  10.494167633354003  44.126394360675  
358  2  7.8536012322749906  1.971194719648006  29.154093014750003  
359  2  7.8560700611249885  1.9755691760149976  36.660016877824994  
360  2  7.864955400600004  1.9836372395090067  44.126342119749999  
361  2  9.3797774508749896  3.3568080292030014  26.400212653375  
362  2  9.3839940149999936  3.3928930389230034  33.908696321775004  
363  2  9.3868417235249897  3.3971994103660008  41.398529979949998  
364  2  9.379789672800003  11.867627783974999  26.400317135225002  
365  2  9.3839940149999936  11.903508538923004  33.908696321775004  
366  2  9.3868539454499906  11.907797889134999  41.398582220874999  
367  2  0.21258816345000434  3.3404846686740024  26.461125571924999  
368  2  0.2175013772999855  3.3927228266130025  33.911412849874999  
369  2  0.2211312890250044  3.3994802553200021  41.433897086175001  
370  2  0.21242927842500384  11.851202296060002  26.461282294699998  
371  2  0.2175013772999855  11.903321305382001  33.911412849874999  
372  2  0.2211312890250044  11.910112776550998  41.433949327100002  
373  2  3.2767836459749957  3.4453694940959987  26.460707644524998  
374  2  3.2728726299749922  3.3943568647889966  33.911465090799993  
375  2  3.2689738358999896  3.3890292194860003  41.433897086175001  
376  2  3.2767103144249967  11.955967972864997  26.460968849149999  
377  2  3.2728726299749922  11.904972364788996  33.911465090799993  
378  2  3.2689738358999896  11.899678761947998  41.433949327100002  
379  2  6.3319104601499898  3.4303567683540019  26.398331980075003  
380  2  6.3281583291749861  3.3942377161720025  33.908696321775004  
381  2  6.3249195190499901  3.3911738945919976  41.398529979949998  
382  2  6.3318737943749959  11.941074395740001  26.398279739149995  
383  2  6.3281461072499852  11.904802152479004  33.908696321775004  
384  2  6.3249317409750025  11.901806415823  41.398529979949998  
385  2  9.3668466542249949  6.2222982255910084  26.394361669774998  
386  2  9.3840184588499849  6.2308428835530005  33.907547021425003  
387  2  9.3879294748499884  6.2393534990530037  41.395395524450002  
388  2  9.3668099884500009  14.732981810515003  26.394361669774998  
389  2  9.3839695711500006  14.741475404783996  33.907547021425003  
390  2  9.3879416967750018  14.749917935360005  41.395447765374996  
391  2  0.16717149014999555  6.2158301578110038  26.37926404245  
392  2  0.21755026499999233  6.2309109684770023  33.909793381199997  
393  2  0.22103351362500159  6.2372598876399978  41.446696112799998  
394  2  0.16708593667500529  14.726394594117989  26.379211801524999  
395  2  0.21751359922499808  14.741577532170002  33.909741140274996  
396  2  0.22103351362500159  14.747824323946999  41.446696112799998  
397  2  3.2402767559999952  6.2280003379760043  26.372420481275  
398  2  3.2724448625999867  6.2300258644649995  33.909323212874995  
399  2  3.2671283252249923  6.2282386352099994  41.435986723174999  
400  2  3.2400934271250019  14.738615837975997  26.372472722199994  
401  2  3.2724326406749848  14.740692428157999  33.909270971950001  
402  2  3.2671405471500048  14.738803071516999  41.435986723174999  
403  2  6.2984346075750004  6.2473024139300035  26.346822428024993  
404  2  6.327913890674985  6.2303833103160047  33.907181334949996  
405  2  6.3235628853749954  6.2273535311979966  41.399209111974997  
406  2  6.2984468295000022  14.757934935161005  26.346874668950001  
407  2  6.3278772249000017  14.740964767853992  33.907181334949996  
408  2  6.3235873292249991  14.737917967504996  41.399261352899998  
409  2  9.4121411082749873  9.0506991596300015  26.346195536924998  
410  2  9.3842384534999947  9.067362944779001  33.907076853099994  
411  2  9.3881983572000056  9.0717203799149981  41.399313593824999  
412  2  9.4122022178999849  0.54004961716800337  26.346195536924998  
413  2  9.3842017877250008  0.55676446600999652  33.907076853099994  
414  2  9.3882105791249959  0.56105381622200645  41.399313593824999  
415  2  0.24849617909999749  9.0685374097179992  26.372681685900002  
416  2  0.21781914734999736  9.0674310297030036  33.909323212874995  
417  2  0.22285458044999559  9.0710054882129967  41.435934482249998  
418  2  0.2484839571749958  0.55787084602500003  26.37257720405  
419  2  0.21779470349999394  0.55683255093400608  33.909323212874995  
420  2  0.22285458044999559  0.56032190328899489  41.435934482249998  
421  2  3.3212103433499967  9.081150141889001  26.379995415399996  
422  2  3.2727015230250007  9.0670054989279976  33.909845622124998  
423  2  3.2689738358999896  9.0618480659350027  41.446591630949996  
424  2  3.3211736775750023  0.5705005994269966  26.380152138175003  
425  2  3.2726893010999989  0.55647510508300146  33.909845622124998  
426  2  3.2689738358999896  0.55113043854899513  41.446591630949996  
427  2  6.3443034920999963  9.075209732270002  26.392742201099999  
428  2  6.328109441475001  9.0669203927729995  33.907703744199999  
429  2  6.3238073238749974  9.0596012634429979  41.395447765374996  
430  2  6.3442301605499969  0.56457721103900005  26.392742201099999  
431  2  6.3280849976249982  0.55637297769700222  33.907755985125  
432  2  6.3238195457999984  0.5489176785190033  41.395500006299997  
433  2  10.901883768450006  3.3364506369269979  25.472831752775001  
434  2  10.911514645350005  3.3920589986040004  32.910320004099994  
435  2  10.919874442050002  3.4006717414900023  40.421624682450002  
436  2  10.901859324599991  11.847117200619998  25.472831752775001  
437  2  10.911490201500001  11.902657477372998  32.910320004099994  
438  2  10.919862220124989  11.911304262720996  40.421676923374996  
439  2  1.7442642482999899  3.3930462300020023  25.481817191874995  
440  2  1.7451931145999895  3.3934887820080037  32.913088773125004  
441  2  1.7450953391999977  3.3942547374029974  40.443461389099994  
442  2  1.7442275825249958  11.903644708770999  25.482130637425001  
443  2  1.7451808926749879  11.904138324470001  32.913141014049998  
444  2  1.7450953391999977  11.904887258634  40.443461389099994  
445  2  4.8093030436500017  3.4505099058579991  25.471160043174997  
446  2  4.8006376988249952  3.3949185654119995  32.910372245025002  
447  2  4.7921434609499913  3.3877015634680037  40.421676923374996  
448  2  4.809144158625001  11.961210512013004  25.471369006874998  
449  2  4.8006376988249952  11.905483001719  32.910372245025002  
450  2  4.7921556828750038  11.898334084698998  40.421676923374996  
451  2  7.8565100504249958  3.3933185696980024  25.463532868125  
452  2  7.855972285724997  3.393556866931998  32.908857258200001  
453  2  7.8559600637999951  3.3941185675550085  40.395086292549998  
454  2  7.8564489407999982  11.903985133391002  25.463376145350001  
455  2  7.8559600637999951  11.904138324470001  32.908805017274993  
456  2  7.855972285724997  11.904751088786004  40.395086292549998  
457  2  10.881497597549989  6.2182131301509962  25.388201454275002  
458  2  10.911563533049991  6.2310301170939963  32.908700535425005  
459  2  10.922404380524986  6.2391832867430024  40.419691768225  
460  2  10.881375378300005  14.728845651382006  25.388201454275002  
461  2  10.91147797957499  14.741662638325  32.908648294499997  
462  2  10.922404380524986  14.74974772305001  40.419691768225  
463  2  1.6194906159750047  6.2114216589819993  25.339774116800001  
464  2  1.7443620237000037  6.2301279918509991  32.908909499124995  
465  2  1.742895392700005  6.2340769174429989  40.447222735699995  
466  2  1.6196006132999874  14.722071201443997  25.339774116800001  
467  2  1.7443498017749912  14.740811576775  32.908857258200001  
468  2  1.742895392700005  14.74464135375  40.447222735699995  
469  2  4.7374259027249854  6.0990985556129989  25.1949622727  
470  2  4.8003321506999965  6.2300258644649995  32.906297452874995  
471  2  4.7905423887749849  6.2280684228999981  40.417288685674997  
472  2  4.737291461549999  14.609714055612999  25.1951712364  
473  2  4.8003443726249975  14.74065838569601  32.906297452874995  
474  2  4.7905423887749849  14.738632859206998  40.417288685674997  
475  2  7.8398637885749922  6.2778385023440011  25.339878598649999  
476  2  7.8563144996249905  6.2311492657109984  32.906506416574999  
477  2  7.8553978552500032  6.2294301213799992  40.391533909650001  
478  2  7.8397293473999952  14.788573150961003  25.339669634949999  
479  2  7.8562656119250054  14.741730723249008  32.906506416574999  
480  2  7.8554222990999962  14.739994557687  40.391586150575002  
481  2  10.97306425965  9.1974562133119999  25.197522078024999  
482  2  10.911807971550003  9.0675331570890023  32.906192971025  
483  2  10.921426626525001  9.0709544245199982  40.417340926599998  
484  2  10.973076481575003  0.68695986192899305  25.197313114324999  
485  2  10.911746861925005  0.55691765708900276  32.906192971025  
486  2  10.921426626525001  0.56027083959600288  40.417340926599998  
487  2  1.8681701239499844  9.0845203456270038  25.341393585475  
488  2  1.7458775423999875  9.067362944779001  32.909013980974997  
489  2  1.7471975102999875  9.0649969936700039  40.447170494775001  
490  2  1.8680967923999958  0.5737176120859927  25.34155030825  
491  2  1.7458775423999875  0.55678148724099885  32.908909499124995  
492  2  1.7471975102999875  0.55431340874600166  40.44711825385  
493  2  4.8278803696499928  9.0787161058560013  25.388149213350001  
494  2  4.8005154795749894  9.0667161380010022  32.908805017274993  
495  2  4.789601300549994  9.0597714757529992  40.419639527299992  
496  2  4.8278070381000049  0.56833890308999679  25.388149213350001  
497  2  4.8005277015000019  0.5561857441560063  32.908805017274993  
498  2  4.789601300549994  0.54907086959799445  40.419639527299992  
499  2  7.8717996786000057  9.0188694576600046  25.335385879099995  
500  2  7.8556178498999909  9.0666140106150035  32.906506416574999  
501  2  7.8565344942749888  9.0694905986539975  40.391586150575002  
502  2  7.871665237424998  0.50818587273599425  25.335490360950001  
503  2  7.8555934060499979  0.55604957430800239  32.906610898425001  
504  2  7.8565467161999907  0.55880701372999475  40.391586150575002  
505  2  9.3827351567250012  4.8113573243080028  30.152103645950003  
506  2  9.386096186100005  4.8129232775600022  37.661370928224997  
507  2  9.3480004458749981  4.8331955636810013  45.099068143250001  
508  2  9.38264960325  13.321955803077  30.151946923174997  
509  2  9.386096186100005  13.323538777560001  37.661370928224997  
510  2  9.3480737774249985  13.343811063681001  45.099120384175002  
511  2  0.21222150569999651  4.8112211544599983  30.160984603200003  
512  2  0.21972576765000332  4.812804128943001  37.668527934949999  
513  2  0.19442638289998412  4.8087020122720014  45.248999597999997  
514  2  0.21216039607499881  13.321853675691001  30.160984603200003  
515  2  0.21972576765000332  13.323436650174003  37.668475694024998  
516  2  0.19442638289998412  13.31931751227201  45.248999597999997  
517  2  3.2727015230250007  4.8200892158109987  30.157171015674997  
518  2  3.2704893545999956  4.8115786003110035  37.667430875525  
519  2  3.310418383574997  4.7614851174780011  45.144099820599997  
520  2  3.2726526353249938  13.330772800735009  30.157275497524996  
521  2  3.2704893545999956  13.322160057849006  37.667378634599999  
522  2  3.3104428274250002  13.27213465993999  45.144099820599997  
523  2  6.3277916714250004  4.8181658167080021  30.149125913225003  
524  2  6.326031714225004  4.8120551947790018  37.661005241749997  
525  2  6.3459167862000045  4.8115105153870008  45.114426975199997  
526  2  6.3277305618000028  13.328815359169992  30.149021431375001  
527  2  6.3260439361499952  13.322636652317005  37.661005241749997  
528  2  6.3459656738999897  13.322108994155998  45.114531457049999  
529  2  9.3847151085749854  7.6510433345000006  30.151894682249996  
530  2  9.3861206299499962  7.6501752517190003  37.661005241749997  
531  2  9.3304008738750035  7.7247452647299992  45.128949952349998  
532  2  9.3846173331749938  16.161658834499999  30.151894682249996  
533  2  9.3861328518749989  16.160773730488007  37.661005241749997  
534  2  9.3303886519500008  16.235394807191998  45.129002193274999  
535  2  0.21817358317499261  7.6539199225390018  30.153043982599996  
536  2  0.21987243074999127  7.6499199332540018  37.669624994374999  
537  2  0.20725940414998678  7.5735626909880018  45.476874512849996  
538  2  0.21811247354998409  16.164569465000991  30.153043982599996  
539  2  0.21988465267500382  16.160518412022991  37.669624994374999  
540  2  0.20719829452498911  16.084246275911998  45.476822271924995  
541  2  3.2720170952250025  7.6429412285440019  30.152573814274998  
542  2  3.2704526888250012  7.6485412135429982  37.669624994374999  
543  2  3.2782991646750013  7.7280644047750018  45.47708347655  
544  2  3.2719437636750031  16.153607792236993  30.152626055199995  
545  2  3.270464910750003  16.159105649850005  37.669572753449998  
546  2  3.2783236085249938  16.238799053392004  45.477135717475001  
547  2  6.3268139174249942  7.6463114322819967  30.1515812367  
548  2  6.3261417115499867  7.6481667464609986  37.661005241749997  
549  2  6.3802115077500003  7.5745839648480011  45.128740988650001  
550  2  6.3267405858749948  16.156995017205997  30.1515812367  
551  2  6.3261417115499867  16.158748203998993  37.661005241749997  
552  2  6.380272617374998  16.085148401154996  45.128793229574995  
553  2  9.383810686124999  10.479154907611997  30.14917815415  
554  2  9.3862184053499895  10.486337867093997  37.661057482675005  
555  2  9.3652089162750052  10.487648501880999  45.114688179824995  
556  2  9.3838229080500017  1.9685564288430002  30.14917815415  
557  2  9.3862306272749905  1.9756883246319992  37.661057482675005  
558  2  9.3651478066499969  1.977135129267005  45.114635938900001  
559  2  0.21718360724998451  10.476874062657997  30.157379979374998  
560  2  0.21983576497499699  10.486882546485997  37.667430875525  
561  2  0.17806122532498711  10.539171768117997  45.143943097825002  
562  2  0.21713471954999938  1.9662245201960067  30.157379979374998  
563  2  0.21984798689999871  1.9762330040239997  37.667430875525  
564  2  0.17801233762500199  2.0285562681179963  45.143890856900001  
565  2  3.2777980657499968  10.486082548628998  30.160618916724999  
566  2  3.2705993519250001  10.485537869236998  37.668475694024998  
567  2  3.2949087607500003  10.490099559145001  45.249469766324992  
568  2  3.2777613999750024  1.9755010910910034  30.160618916724999  
569  2  3.2705993519250001  1.9749053480059957  37.668475694024998  
570  2  3.294884316899986  1.9793989529900038  45.249574248175001  
571  2  6.3287572034999942  10.486082548628998  30.1515812367  
572  2  6.326166155400001  10.485333614465  37.661423169149998  
573  2  6.3625630480499975  10.465554944043001  45.098441252149996  
574  2  6.3287449815749923  1.9755181123220056  30.1515812367  
575  2  6.326166155400001  1.9747010932339972  37.661423169149998  
576  2  6.3625386042000054  1.9550075289669959  45.098441252149996  
577  2  6.5149215650999963  6.6588417370479966  49.538815395299999  
578  2  6.5189181345750011  6.6470460239650029  7.1406030745499995  
579  2  6.5205803163749945  6.6469098541169993  16.976942360949998  
580  2  6.5149460089499991  15.169457237047997  49.538815395299999  
581  2  6.5188936907249868  15.157610460271997  7.1406030745499995  
582  2  6.5206047602249981  15.157474290424007  16.9768378791  
583  2  6.5661925404749981  10.873315553879003  47.159397984324997  
584  2  6.5188814687999956  10.902728241047003  4.6838690945749999  
585  2  6.5179770463499889  10.901349521335998  14.512215519449999  
586  2  6.5662414281749939  2.3625468627999968  47.159345743399996  
587  2  6.5188570249500035  2.3921297622780049  4.6838690945749999  
588  2  6.5179770463499889  2.3907850850289982  14.512215519449999  
589  2  6.5133693806249848  10.907017591258997  52.021147428524998  
590  2  6.5186981399250028  10.901962285652001  9.598068427474999  
591  2  6.5177326078499869  10.899392079770998  19.404107977374998  
592  2  6.5133693806249848  2.3964191124899994  52.021199669449992  
593  2  6.518685918000001  2.3913638068830037  9.598068427474999  
594  2  6.5177203859249966  2.3887425373090001  19.404107977374998  
595  2  6.5201036612999932  6.6483396375210022  2.2241051409499999  
596  2  6.5184537014250008  6.6465013445730028  12.0557427441  
597  2  6.505999559849986  6.6687651147210003  21.910993245349999  
598  2  6.520091439375002  15.158887052596993  2.2240529000249998  
599  2  6.5184414794999883  15.157031738417999  12.0557427441  
600  2  6.5059873379249842  15.179482742107  21.911045486274997  
601  2  6.5474807732999878  3.8990193427079971  47.979371543124998  
602  2  6.5192603484749947  3.8968406251400025  5.5531058456500002  
603  2  6.5174759474250052  3.8967214765230009  15.379049187974999  
604  2  6.5475174390750039  12.409736970094004  47.979423784049999  
605  2  6.5192481265500035  12.407422082677998  5.5531058456500002  
606  2  6.5174637255000034  12.407285912830002  15.379049187974999  
607  2  6.5186370303000052  8.1520122052919994  3.0920358688999996  
608  2  6.5188081372499962  8.1511100800490013  12.924927254249999  
609  2  6.5014530037499911  8.1959269812719988  22.835082967675  
610  2  6.5186370303000052  16.662542599137002  3.0920358688999996  
611  2  6.5188081372499962  16.661657495124999  12.924927254249999  
612  2  6.5014163379749972  16.706576523734004  22.834978485825001  
613  2  6.5143349127000008  8.1607100543329967  50.398074129699999  
614  2  6.5187348056999861  8.1515356108240002  8.0094218982249998  
615  2  6.5188570249500035  8.1475696640009971  17.851298722674997  
616  2  6.514371578474984  16.67130853310201  50.398074129699999  
617  2  6.5187225837749949  16.662100047131009  8.0094218982249998  
618  2  6.5189425784250039  16.658134100308004  17.851194240824999  
619  2  6.5221447227749962  3.9016065698200033  0.64893677034999997  
620  2  6.5186248083750034  3.8959725423590021  10.466939492074999  
621  2  6.519492565049994  3.9024065676770019  20.247224265949999  
622  2  6.5221447227749962  12.412188027357999  0.64883228849999997  
623  2  6.5186125864500015  12.406536978666002  10.466939492074999  
624  2  6.5195781185249952  12.413056110138999  20.247172025024998  
625  2  6.5215214045999845  3.9084150622200027  51.160164743599992  
626  2  6.5186981399250028  3.8962108395929977  8.729406326574999  
627  2  6.523880236124989  3.8930278693959988  18.528550074375001  
628  2  6.521533626524997  12.418996519757998  51.160060261749997  
629  2  6.518685918000001  12.406775275899998  8.729406326574999  
630  2  6.5239413457499973  12.403677411858004  18.528550074375001  
631  2  6.5074661908499962  8.1418505303849997  48.640062521600001  
632  2  6.5189425784250039  8.1517739080580025  6.2716797690249999  
633  2  6.5172070650749898  8.1493739144870005  16.107862332650001  
634  2  6.5075028566250008  16.652500072846991  48.640114762525002  
635  2  6.5189425784250039  16.662338344364997  6.2716275280999998  
636  2  6.5172559527749963  16.659972393255998  16.107757850799999  
637  2  6.5182703725499866  8.1514164622069991  1.3519428980749999  
638  2  6.5185025891249859  8.1511271012800037  11.187028402274999  
639  2  6.5058773406000014  8.1943610280199994  21.089556940649999  
640  2  6.5182703725499866  16.661963877283004  1.3519428980749999  
641  2  6.5184903671999956  16.661640473893996  11.187028402274999  
642  2  6.5058773406000014  16.704959506788999  21.0894524588  
643  2  6.5190892415250028  3.897538495611002  3.8160950894000001  
644  2  6.5185636987499951  3.895734245124999  13.642874286525  
645  2  6.5054984609250033  3.5347309568460021  23.26821247685  
646  2  6.5190892415250028  12.408119953148997  3.8160950894000001  
647  2  6.5185636987499951  12.406281660200998  13.642874286525  
648  2  6.5054617951499978  12.045414541769997  23.268160235924999  
649  2  5.1118812408750038  4.3218948056720023  50.429418684699996  
650  2  5.103888101925004  4.3116139821480015  8.0096831028499995  
651  2  5.1012603880499841  4.3109671753700018  17.834163699274999  
652  2  5.1118934628000048  12.832459241979002  50.429314202850001  
653  2  5.103875880000003  12.822195439685997  8.0096831028499995  
654  2  5.1013092757499914  12.821565654139  17.834163699274999  
655  2  5.1032403398999895  8.6360619724699976  47.896412954224999  
656  2  5.1044625323999977  8.5676196026190006  5.5514863769749994  
657  2  5.1036803291999968  8.5650153542759995  15.3836986303  
658  2  5.1032892275999968  0.12548051493200266  47.896360713299998  
659  2  5.1044503104749959  0.05697006015699603  5.5514863769749994  
660  2  5.1037047730499898  0.054382833044997227  15.383646389374999  
661  2  5.1041814281250018  8.5682493881659987  0.62819712312499998  
662  2  5.103888101925004  8.5667344986069978  10.467043973925  
663  2  5.1090579761999999  8.5957386762310009  20.306726679524999  
664  2  5.1041936500500036  0.05758282447300609  0.62819712312499998  
665  2  5.103888101925004  0.056033892452001237  10.466991733  
666  2  5.1090335323499962  0.085089133768995809  20.306622197674997  
667  2  5.1035458880249891  4.3139458907950026  3.0977301297249999  
668  2  5.1034114468500027  4.3109501541389994  12.923882435749999  
669  2  5.1347362406249957  4.2023547003589989  22.688547173050001  
670  2  5.1035458880249891  12.824493305871  3.0976778887999998  
671  2  5.1034114468500027  12.821463526753  12.923830194824999  
672  2  5.1347362406249957  12.713106370207003  22.688494932125  
673  2  5.1062958211500042  5.81870781735  49.549054616599996  
674  2  5.103912545774997  5.8164269723959983  7.1410210019500004  
675  2  5.1052080698250046  5.8168695244019997  16.969158463124998  
676  2  5.1063202649999857  14.329323317349999  49.549002375674995  
677  2  5.1039003238499951  14.326991408702991  7.1410210019500004  
678  2  5.1052202917499949  14.327416939477999  16.969158463124998  
679  2  5.0506005089249921  10.202900328482002  47.261685715474997  
680  2  5.103875880000003  10.072228338095  4.6825108305249996  
681  2  5.1030570110249966  10.07061132115  14.5158723842  
682  2  5.0505760650749991  1.6923188709439994  47.261581233624995  
683  2  5.103875880000003  1.5615787956330023  4.6825108305249996  
684  2  5.1030814548749897  1.5599958211499927  14.5158723842  
685  2  5.0984737891499856  10.077981514173002  52.009497702249995  
686  2  5.1037781045999893  10.071326212852002  9.5981206684  
687  2  5.0950516501499958  10.08160703637601  19.409697756349999  
688  2  5.0984860110749874  1.5673489929420075  52.009549943174996  
689  2  5.1037903265249911  1.5606596491589948  9.598068427474999  
690  2  5.0950516501499958  1.5709574939139979  19.409593274499997  
691  2  5.1046947489749872  5.8186737748880031  2.2283888967999999  
692  2  5.1035336660999979  5.8156439957700021  12.055115852999998  
693  2  5.1364839759000009  5.7829972747119971  21.909687222224999  
694  2  5.1046947489749872  14.329221189964001  2.2283366558749997  
695  2  5.1035336660999979  14.326157368384003  12.055115852999998  
696  2  5.1365328635999861  14.293595753481002  21.90953049945  
697  2  5.1035214441749961  4.3271203235889999  48.667906934625002  
698  2  5.1040225430999904  4.3118863218440016  6.2722021782750002  
699  2  5.101565936175005  4.3130607867829998  16.098145520599999  
700  2  5.103497000325004  12.837752844820002  48.667802452774993  
701  2  5.1040225430999904  12.822467779381997  6.2722021782750002  
702  2  5.101565936175005  12.823574159397001  16.098197761525  
703  2  5.104303647374997  8.5678578998529957  3.8132218385250001  
704  2  5.1044503104749959  8.5668196047620029  13.645277369075  
705  2  5.0069071270499963  8.814342345964004  23.596651172325  
706  2  5.1043158692999882  0.057191336159996727  3.8132218385250001  
707  2  5.1044747543249889  0.056187083531007535  13.645225128149999  
708  2  5.006858239349989  0.30364173980900649  23.596651172325  
709  2  5.1031303425749961  8.5798408464770013  51.127461924549998  
710  2  5.1039247676999882  8.5667515198380002  8.7293018447249988  
711  2  5.1031425644999979  8.5629557853249985  18.568253177374999  
712  2  5.10316700834999  0.069208325245998348  51.127461924549998  
713  2  5.103912545774997  0.056084956144993259  8.7292496037999996  
714  2  5.1032036741249955  0.0523062428629942  18.568148695525  
715  2  5.104511420100005  4.3139799332569995  1.36192091475  
716  2  5.1035581099499909  4.3109671753700018  11.186453752099998  
717  2  5.1178822060499956  4.3162267357490034  20.977082229124999  
718  2  5.1045236420249953  12.824527348332998  1.3618686738249999  
719  2  5.1035458880249891  12.821497569214998  11.186453752099998  
720  2  5.117955537599995  12.826808193286999  20.977029988199998  
721  2  4.0710621078750018  11.668921933280997  49.564204484849995  
722  2  4.0776497254499997  11.651594320123001  7.1405508336249994  
723  2  4.0738731506250039  11.655015587554002  16.973076532499999  
724  2  4.0710621078750018  3.1583234545120065  49.564308966699997  
725  2  4.0776375035249872  3.141012862585006  7.1405508336249994  
726  2  4.0738120409999956  3.1444851937090075  16.973076532499999  
727  2  4.1059801475999871  7.4012397483439978  47.153233555174999  
728  2  4.0781019366749875  7.3973759289070022  4.6835556490249992  
729  2  4.0778208324000023  7.3957078482690033  14.510648291699999  
730  2  4.1060412572249954  15.911940354499009  47.153129073324997  
731  2  4.0781141586  15.907940365214003  4.6835556490249992  
732  2  4.0778574981749856  15.906289305806991  14.510596050774998  
733  2  4.0803263270250048  7.3980908206090037  51.994556797699993  
734  2  4.0775152842750026  7.3962014639679969  9.5982251502500002  
735  2  4.0836873563999969  7.3979035870680008  19.458543021224997  
736  2  4.0803752147250014  15.908655256915988  51.994556797699993  
737  2  4.0775152842750026  15.906765900274991  9.5981729093249992  
738  2  4.0837240221750024  15.908451002144005  19.458334057525001  
739  2  4.0775397281249957  11.653483676764001  2.22598581425  
740  2  4.0772952896250052  11.650573046263009  12.055586021324999  
741  2  4.0568235652499984  11.590028527595997  21.8237509006  
742  2  4.0775152842750026  3.1429362616880026  2.2260380551750001  
743  2  4.0772830677000034  3.1400426524180061  12.055586021324999  
744  2  4.0568235652499984  3.0793789851339928  21.823594177824997  
745  2  3.9959094910499942  9.9307989297159978  48.561022002074999  
746  2  4.0778086104750004  9.9050287859820081  6.1310471989249997  
747  2  4.0756453297500022  9.9016585822439982  15.964774439074999  
748  2  3.995958378750001  1.420166408484995  48.560969761149998  
749  2  4.0777963885499879  1.3943792435200038  6.1310471989249997  
750  2  4.0756453297500022  1.3910260610130036  15.964722198149998  
751  2  4.0776497254499997  5.6516614563159999  3.6758282057749994  
752  2  4.0771364046000045  5.6486827408909992  13.502920848449998  
753  2  4.2374269509750038  5.5222830794849971  23.395262406449998  
754  2  4.0776619473750015  14.162225892623001  3.6757759648499997  
755  2  4.0771730703749878  14.159196113505008  13.502920848449998  
756  2  4.2376347236999896  14.032915600715999  23.395157924599999  
757  2  4.0848606611999871  5.6609550484419993  51.000986645125003  
758  2  4.0774908404249999  5.6491252928970006  8.5890872020250004  
759  2  4.0825996050749973  5.6528529424860006  18.418739650025  
760  2  4.0848851050500015  14.171502463517998  51.000934404199995  
761  2  4.0774786184999874  14.159689729204  8.5890872020250004  
762  2  4.0826240489249894  14.163451421255006  18.418687409099999  
763  2  4.0752297842999985  9.9035479388849978  1.212877555725  
764  2  4.0775397281249957  9.9043990004350029  11.046448073099999  
765  2  4.0563102444000023  9.9399393307629982  20.8547862237  
766  2  4.0752297842999985  1.3928643539610035  1.2129297966499999  
767  2  4.0775397281249957  1.3937324367420039  11.046395832175  
768  2  4.0562858005499987  1.4293748944559972  20.854681741849998  
769  2  4.0634478486000019  9.9183564098549972  50.555423795799996  
770  2  4.0775886158250021  9.9043990004350029  8.1498455046250005  
771  2  4.0691188218000018  9.8901181876260029  17.970564754449999  
772  2  4.063472292449994  1.4077068673930071  50.555423795799996  
773  2  4.0775641719749878  1.3937324367420039  8.1497932636999995  
774  2  4.0691554875749958  1.3795197088569977  17.970355790749998  
775  2  4.1136188507250013  5.6718826787439998  48.060292735949993  
776  2  4.0776375035249872  5.6496189085960014  5.6930070427999997  
777  2  4.0772586238499997  5.6513720953889974  15.520099685475  
778  2  4.113643294575005  14.182549242437007  48.060240495024999  
779  2  4.0776252815999854  14.160183344903002  5.6930070427999997  
780  2  4.0772708457750015  14.161902489233993  15.519995203624999  
781  2  4.0801429981500013  5.651355074158003  0.77980028747499996  
782  2  4.0772586238499997  5.648597634736003  10.606945171074999  
783  2  4.0891383349499995  5.6867081709450007  20.477345540575001  
784  2  4.0801429981500013  14.161919510464996  0.77969580562499996  
785  2  4.0772586238499997  14.159128028580998  10.606945171074999  
786  2  4.0891505568749897  14.197221543558994  20.477188817799998  
787  2  4.0776252815999854  9.9055394229119962  3.2333998119499996  
788  2  4.0775519500499859  9.9045521915140018  13.066813606549999  
789  2  3.9133992753749895  9.9145266328799977  22.821343604399999  
790  2  4.0776252815999854  1.3948898804499994  3.2333998119499996  
791  2  4.0775763939000003  1.3939366915140023  13.066709124699999  
792  2  3.9132892780499957  1.4035366657979986  22.821239122550001  
793  2  7.5042252842249937  11.098659631088003  48.683213525649997  
794  2  7.5452053987499905  11.069434177461  6.1320920174249993  
795  2  7.5443987516999966  11.068549073448997  15.956206927375  
796  2  7.5042130623000025  2.5880781735500005  48.683265766574998  
797  2  7.5451931768249887  2.5588016562300049  6.1321442583499994  
798  2  7.5443865297749957  2.557950594680007  15.956154686449999  
799  2  7.5460853773500052  6.8151306800900047  3.6724847865749997  
800  2  7.5447776313749957  6.8132072809870001  13.50459255805  
801  2  7.5203093375250054  6.7805265174669973  23.4068598918  
802  2  7.5460731554250033  15.325661073934992  3.6724325456499995  
803  2  7.5447531875250027  15.323737674832003  13.504540317124999  
804  2  7.5203460033000002  15.291244144852996  23.406964373649998  
805  2  7.5477597810750003  6.8174285462750008  50.979724588650001  
806  2  7.5451320671999911  6.8139051514579991  8.5889827201750002  
807  2  7.5437265458250007  6.811300903114998  18.439740501874997  
808  2  7.5477597810750003  15.328027025043998  50.979724588650001  
809  2  7.5451076233499981  15.32445256653399  8.5889304792499992  
810  2  7.5438365431500056  15.321882360653008  18.439636020024999  
811  2  7.5432865565249934  11.067953330363997  1.2234302225749998  
812  2  7.5449854041000028  11.068838434376  11.046291350324999  
813  2  7.5587228477999906  11.072497999040998  20.840942378574997  
814  2  7.5432865565249934  2.5573548515949995  1.223534704425  
815  2  7.5449609602499885  2.5582229343759999  11.046291350324999  
816  2  7.5586861820249966  2.5617803716549981  20.840994619499998  
817  2  7.5463298158499956  9.3102388899180024  49.511388909674999  
818  2  7.5451687329749957  9.3219835393079968  7.1409165201000002  
819  2  7.5431032276500005  9.3142729216650011  16.976524433549997  
820  2  7.5463664816249896  0.79964041114900553  49.5114411506  
821  2  7.5451565110500054  0.81131697561500493  7.1408642791750001  
822  2  7.5431765592  0.80365742166499254  16.976419951699999  
823  2  7.5624016472249949  5.1447691971359975  47.398974866374999  
824  2  7.5458776046249971  5.0680545090190003  4.6839213355  
825  2  7.5449976260250047  5.0678842967089999  14.512163278525  
826  2  7.5624627568500031  13.655503845753007  47.399131589150002  
827  2  7.5458653826999953  13.578652987788006  4.6839213355  
828  2  7.5449731821749904  13.578465754247002  14.512163278525  
829  2  7.5528563237999959  5.07794384423  52.016184540649995  
830  2  7.5450342917999986  5.0666757893079968  9.5983296321000005  
831  2  7.547160906750003  5.0773140586830028  19.404055736449997  
832  2  7.5528685457249978  13.588525301768003  52.016132299725001  
833  2  7.5450098479499959  13.577257246845999  9.5983296321000005  
834  2  7.547185350599996  13.58804870729999  19.404107977374998  
835  2  7.5450220698749977  9.3196516306610029  2.2239484181749996  
836  2  7.5449976260250047  9.321217583913004  12.055586021324999  
837  2  7.5962563794750046  9.3593451413530033  21.969659804124998  
838  2  7.5450342917999986  0.8089680457369941  2.2239484181749996  
839  2  7.5449976260250047  0.81051697775799891  12.055533780399999  
840  2  7.5963052671749898  0.84872964135300366  21.9693985995  
841  2  7.5339123400499854  11.078812875742003  50.586454905250001  
842  2  7.5450220698749977  11.069093752840997  8.1499499864750007  
843  2  7.5428710110750004  11.065042699862998  17.957400041349999  
844  2  7.5339123400499854  2.5682484394349951  50.586559387099996  
845  2  7.5450098479499959  2.5584952740719924  8.1498977455499997  
846  2  7.5428587891499985  2.5544782635560055  17.957347800425001  
847  2  7.5467453612999886  6.8207476863200034  48.05214315165  
848  2  7.5453642837749912  6.8141945123850016  5.6921189470749995  
849  2  7.5456942757500043  6.8140072788439987  15.527099969425  
850  2  7.5467942489999951  15.331414250012996  48.052195392575001  
851  2  7.5453520618499894  15.324758948692009  5.6921189470749995  
852  2  7.5457064976749955  15.324605757613003  15.527047728499998  
853  2  7.5464275912499872  6.8143987671569999  0.77128501669999994  
854  2  7.544863184849997  6.8136328117619991  10.607415339399999  
855  2  7.5433721100000053  6.8191306693749967  20.508324409099998  
856  2  7.5464275912499872  15.324963203463993  0.77128501669999994  
857  2  7.5448509629249951  15.324146184376007  10.607415339399999  
858  2  7.5434332196249922  15.329797233068003  20.508324409099998  
859  2  7.5451198452749892  11.069774602081003  3.2370566766999995  
860  2  7.5447287436749892  11.068174606366998  13.064149319374998  
861  2  7.6741711513499862  11.014744962257998  22.78968560385  
862  2  7.5451076233499981  2.5591591020809945  3.2371089176249996  
863  2  7.5447287436749892  2.5576101700600047  13.064097078450001  
864  2  7.6742689267499999  2.5040613773340032  22.789946808474998  
865  2  10.593243496425004  9.4829703421059968  49.547748593474999  
866  2  10.592974614074999  9.4837362975009984  7.1409165201000002  
867  2  10.590774667575005  9.4810980066959996  16.96962863145  
868  2  10.593292384124988  0.97233782087500154  49.547853075324994  
869  2  10.592950170225006  0.97308675503900044  7.1409165201000002  
870  2  10.590823555274991  0.97044846423399445  16.969524149599998  
871  2  10.649721011850005  5.0984374063539999  47.262364847500002  
872  2  10.593475713000004  5.228564717349002  4.6823541077500002  
873  2  10.593011279850003  5.2277987619540003  14.515767902349999  
874  2  10.649757677625001  13.609120991278001  47.262417088424996  
875  2  10.593500156849995  13.739129153656009  4.6823541077500002  
876  2  10.593023501775004  13.738346177029998  14.515715661425  
877  2  10.600099996349995  5.223594517897002  52.0093932204  
878  2  10.592632400175004  5.2281902502670023  9.598068427474999  
879  2  10.600906643399989  5.2161732611810008  19.409958960975001  
880  2  10.600124440199998  13.734141932973001  52.009340979474999  
881  2  10.592632400175004  13.738737665342994  9.598068427474999  
882  2  10.60091886532499  13.726788761181  19.409958960975001  
883  2  10.59330460604999  9.4825958750239963  2.2280754512500001  
884  2  10.592632400175004  9.4832767242640017  12.055168093924999  
885  2  10.559938750799994  9.5142894071459985  21.913239605124996  
886  2  10.593292384124988  0.97191229010000257  2.2281276921750002  
887  2  10.592620178250003  0.97261016057099425  12.055168093924999  
888  2  10.559877641174985  1.0037079496080024  21.913030641424996  
889  2  10.586765876174988  10.979817396245998  50.428269384349996  
890  2  10.592889060599997  10.988362054207998  8.0097353437749987  
891  2  10.594771237049988  10.986489718798001  17.834999554075001  
892  2  10.586790320025003  2.4691848750149963  50.428426107124999  
893  2  10.592876838674995  2.4777295329769964  8.0097353437749987  
894  2  10.594832346674986  2.4757891126429974  17.834947313149996  
895  2  10.598156710275006  6.6659906540679978  47.896308472374997  
896  2  10.592742397499999  6.733037282976996  5.5515386178999995  
897  2  10.592265742424997  6.7332585589799967  15.3836986303  
898  2  10.598230041825005  15.176691260223009  47.896412954224999  
899  2  10.592742397499999  15.243618740515007  5.5514863769749994  
900  2  10.592290186274989  15.243805974056002  15.383646389374999  
901  2  10.594233472349989  6.7333947288280012  0.62804040034999997  
902  2  10.592461293224991  6.7325777097400001  10.467148455775  
903  2  10.587731408250002  6.7020926850190019  20.307196847850001  
904  2  10.594257916200004  15.243942143903991  0.62804040034999997  
905  2  10.592461293224991  15.243108103585003  10.467148455775  
906  2  10.587755852099995  15.212810312404994  20.307092365999999  
907  2  10.594172362725002  10.987221631730998  3.0975211660249999  
908  2  10.59284017289999  10.987783332354001  12.924039158525  
909  2  10.56246868927499  11.094812832882003  22.69293541075  
910  2  10.594172362725002  2.4765380468069962  3.0975734069499996  
911  2  10.59284017289999  2.4771167686610012  12.924039158525  
912  2  10.562493133125004  2.5842143541130045  22.692830928899998  
913  2  10.595590106024995  10.974523793405  48.666391947799994  
914  2  10.592962392149996  10.988464181593997  6.2723066601249995  
915  2  10.59430680389999  10.985025892932001  16.098720170775  
916  2  10.595577884100004  2.4638742509429945  48.666548670574997  
917  2  10.592950170225006  2.4778146391319931  6.2723066601249995  
918  2  10.594331247750002  2.4743933717009985  16.098667929849999  
919  2  10.593255718350004  6.7330883466700033  3.8132740794500002  
920  2  10.59159353654999  6.7318798392690011  13.645329609999999  
921  2  10.691874431175004  6.4825698688119999  23.596494449549997  
922  2  10.593280162199997  15.24363576174601  3.8132218385250001  
923  2  10.591617980400004  15.242427254345007  13.645277369075  
924  2  10.691911096949987  14.993338559890999  23.596337726774998  
925  2  10.596017873399999  6.7217692280550008  51.127409683624997  
926  2  10.59260795632499  6.7329351555909973  8.7294585675  
927  2  10.592901282524998  6.7351819580830012  18.568723345699997  
928  2  10.596066761099985  15.232333664362002  51.127409683624997  
929  2  10.592583512474997  15.243482570666995  8.729406326574999  
930  2  10.592950170225006  15.245746394389995  18.568618863849998  
931  2  10.593683485724988  10.987289716655001  1.3616074692  
932  2  10.592693509799991  10.988004608357002  11.186558233949999  
933  2  10.577428325474996  10.980940797491996  20.980686852950001  
934  2  10.593671263799997  2.4766571954239978  1.3616597101250001  
935  2  10.592693509799991  2.4773550658950043  11.186558233949999  
936  2  10.577526100875  2.4703933824159989  20.980582371099999  
937  2  9.1510441244999967  11.403288602294996  47.978274483699998  
938  2  9.1779568033499928  11.403765196763002  5.5531058456500002  
939  2  9.1786412311499905  11.401552436733004  15.379205910749999  
940  2  9.1510441244999967  2.892622038601997  47.978431206474994  
941  2  9.17794458142499  2.8931326755319926  5.5531058456500002  
942  2  9.1786412311499905  2.8909369367330031  15.379205910749999  
943  2  9.1791789958499894  7.1492404233889983  3.0920358688999996  
944  2  9.1773212632500005  7.1477765975229985  12.924979495174998  
945  2  9.1941019662749905  7.0989597070150001  22.836545713574999  
946  2  9.1791789958499894  15.659770817234001  3.0920358688999996  
947  2  9.1773212632500005  15.658324012599012  12.924927254249999  
948  2  9.1941141882000039  15.609711376863004  22.836493472650002  
949  2  9.1851799610249927  7.1411383174329996  50.397969647849997  
950  2  9.1779690252750044  7.1484063830700029  8.0095263800750001  
951  2  9.1772723755500056  7.1505510581760001  17.851403204524999  
952  2  9.1852044048749963  15.651736796202005  50.398021888774998  
953  2  9.17794458142499  15.658970819377004  8.0094741391500008  
954  2  9.1773457070999935  15.661098473251998  17.851298722674997  
955  2  9.176257955774993  11.399799249940001  0.64862332479999996  
956  2  9.1778101402499939  11.403339665988003  10.466939492074999  
957  2  9.1766123915999991  11.396105642812998  20.249052698324999  
958  2  9.1762457338500028  2.8892007711710024  0.64867556572499996  
959  2  9.1777979183249911  2.8927071447569936  10.466939492074999  
960  2  9.1766368354499921  2.8855071640440002  20.249052698324999  
961  2  9.1847155278749923  8.642870464869997  49.538501949749993  
962  2  9.1779934691249974  8.6531002247009994  7.14081203825  
963  2  9.1754146429499848  8.6511598043669995  16.977099083725001  
964  2  9.1847766375000006  0.13225496486999716  49.538606431599995  
965  2  9.1779690252750044  0.14243366100799884  7.14081203825  
966  2  9.175487974499994  0.1405102619050021  16.976994601874999  
967  2  9.1341045364499962  4.4298945163670034  47.160390561899995  
968  2  9.1785312338249962  4.3979626870109998  4.6840258173500002  
969  2  9.1781401322249963  4.396958434382003  14.512372242225  
970  2  9.1341412022249902  12.940680228676996  47.160495043749997  
971  2  9.178519011900006  12.908578187010999  4.6839735764250001  
972  2  9.178127910300006  12.907556913151  14.512372242225  
973  2  9.1852166267999973  4.3945073771180008  52.021199669449992  
974  2  9.1777612525499972  4.3974860925430006  9.5982773911749995  
975  2  9.178445680349995  4.3982520479380023  19.403846772749997  
976  2  9.1852166267999973  12.905088834656004  52.021147428524998  
977  2  9.1777368087000042  12.908084571311999  9.5982251502500002  
978  2  9.178445680349995  12.908884569168997  19.403846772749997  
979  2  9.1779201375749988  8.6529470336220005  2.224157381875  
980  2  9.1777245867749926  8.6524363966919964  12.05584722595  
981  2  9.1902642818249873  8.6278577391280002  21.915329242125001  
982  2  9.1779079156499961  0.14226344869800528  2.224157381875  
983  2  9.1777123648499899  0.14173579053700711  12.055794985024999  
984  2  9.1901787283499861  0.11731032405199449  21.915172519349998  
985  2  9.1771257124499854  11.393212033543001  51.159694575274997  
986  2  9.1778956937250058  11.403441793374004  8.729406326574999  
987  2  9.1724324932499908  11.403901366610999  18.529856097500002  
988  2  9.177137934374997  2.8825965335430017  51.159746816199991  
989  2  9.1778834717999924  2.8928262933739952  8.729406326574999  
990  2  9.1724447151750041  2.8932518241489942  18.529803856574997  
991  2  9.1930875464999904  7.1598106078400026  48.639853557899997  
992  2  9.1781034664499916  7.1485595741490018  6.2717320099499991  
993  2  9.1787512284750061  7.148763828921  16.107914573574998  
994  2  9.1931364341999977  15.670460150302008  48.639958039749992  
995  2  9.1780912445249996  15.659124010455995  6.2717320099499991  
996  2  9.1787756723249974  15.659345286459002  16.107862332650001  
997  2  9.1799856429000037  7.1499553150910007  1.3519428980749999  
998  2  9.1777368087000042  7.147946809832999  11.1870806432  
999  2  9.191535362025002  7.1043894797040039  21.090079349899998  
1000  2  9.1799856429000037  15.660502730166998  1.3519428980749999  
1001  2  9.1777245867749926  15.658460182447  11.1870806432  
1002  2  9.1915598058749932  15.615056043397002  21.08997486805  
1003  2  9.1785067899750032  11.403322644757001  3.816042848475  
1004  2  9.1776390332999913  11.402607753054999  13.643083250224997  
1005  2  9.1894943005499883  11.762964234555996  23.269570740899997  
1006  2  9.1784945680499916  2.8926901235260063  3.8160950894000001  
1007  2  9.1776390332999913  2.8920092742860017  13.6430310093  
1008  2  9.1895798540250002  3.2523657557869989  23.269466259049999  
1009  2  8.1534783840749956  5.9914903332309999  49.511545632449995  
1010  2  8.1516939830249946  5.9781286668959996  7.1407597973249999  
1011  2  8.1530261728499855  5.9837626943570008  16.976524433549997  
1012  2  8.1535150498500002  14.502139875693006  49.511545632449995  
1013  2  8.1516817611000043  14.488693103203008  7.1407075563999998  
1014  2  8.1530750605500035  14.494361173125998  16.976472192625  
1015  2  8.13658768372499  10.15724938694  47.399131589150002  
1016  2  8.1515595418499878  10.232653440270004  4.6838168536499998  
1017  2  8.1511073306249902  10.230355574084999  14.512215519449999  
1018  2  8.1366121275750043  1.6465828232470012  47.399288311924998  
1019  2  8.1515228760750045  1.7220379402699959  4.6838168536499998  
1020  2  8.1511073306249902  1.7197570953159946  14.512163278525  
1021  2  8.1457296836249871  10.223615166609003  52.015871095099996  
1022  2  8.1514739883749971  10.232840673810999  9.598068427474999  
1023  2  8.14916404455  10.220244962871  19.406093132524997  
1024  2  8.1457174616999968  1.7130337090710073  52.015975576949998  
1025  2  8.1514495445250041  1.7222421950419942  9.598068427474999  
1026  2  8.149127378775006  1.7096464841020025  19.4060408916  
1027  2  8.153001729000005  5.981635040481998  2.2238439363250002  
1028  2  8.151241771799997  5.9777882422759978  12.055533780399999  
1029  2  8.1005452268999889  5.9363926084840015  21.965898457524997  
1030  2  8.1530139509249953  14.492182455557996  2.2238439363250002  
1031  2  8.151229549874996  14.488301614889991  12.055533780399999  
1032  2  8.1005452268999889  14.447076193408011  21.965898457524997  
1033  2  8.1941529504749919  4.2030525708299979  48.683631453049998  
1034  2  8.152011753074996  4.231120580748998  6.1323009811249998  
1035  2  8.1517062049499973  4.2296737761139998  15.956415891075  
1036  2  8.1942018381749993  12.713719134522998  48.683631453049998  
1037  2  8.1519995311500058  12.741719059518003  6.1323009811249998  
1038  2  8.1516939830249946  12.740272254882997  15.956415891075  
1039  2  8.1517673145750056  8.4860879061290042  3.6725370274999998  
1040  2  8.1513517691249913  8.4855942904300026  13.504644798974999  
1041  2  8.1733390122000031  8.5086240159730018  23.412240707074996  
1042  2  8.1517550926500046  16.996618299974006  3.6725892684249999  
1043  2  8.1513395471999885  16.996124684275006  13.50459255805  
1044  2  8.1734001218249901  17.019290579666009  23.411979502449999  
1045  2  8.1518406461250059  8.4844538679530022  50.979724588650001  
1046  2  8.1515717637749887  8.485883651356998  8.5890872020250004  
1047  2  8.1523417450499878  8.4867006704449981  18.439636020024999  
1048  2  8.1518406461250059  16.995052346722009  50.979776829575002  
1049  2  8.1515350980000054  16.996448087663989  8.5890349610999994  
1050  2  8.1524395204500024  16.997231064290009  18.439479297249999  
1051  2  8.1551894535749838  4.2334184469340022  1.2235869453499999  
1052  2  8.1514617664499962  4.230303561660997  11.046448073099999  
1053  2  8.1365021302499887  4.2269503791539975  20.840315487474996  
1054  2  8.1551772316499935  12.743999904471996  1.223534704425  
1055  2  8.1514495445250041  12.740885019199  11.046448073099999  
1056  2  8.1365754617999873  12.737582900385  20.840211005624997  
1057  2  8.1645270042749978  4.2229503898689975  50.586663868949998  
1058  2  8.1515473199249975  4.2305418588950001  8.1501589501749994  
1059  2  8.1538817075999859  4.2316312176790012  17.956929873025  
1060  2  8.1645392262000005  12.733531847407001  50.586559387099996  
1061  2  8.1515350980000054  12.741140337663998  8.1501589501749994  
1062  2  8.1538694856749849  12.742229696448  17.957034354874999  
1063  2  8.1535883814000005  8.4809474943670029  48.051777465175  
1064  2  8.1517306487999903  8.4862751396699991  5.692327910775  
1065  2  8.1502640177999908  8.4841985494879957  15.527099969425  
1066  2  8.1536617129499884  16.991562994367005  48.051881947024995  
1067  2  8.1517184268749876  16.996822554746004  5.6922756698499999  
1068  2  8.1503006835749954  16.994797028256993  15.526995487575  
1069  2  8.1518284242000032  8.4869559889100046  0.77138949854999994  
1070  2  8.1514006568249986  8.4854921630440039  10.607467580325  
1071  2  8.1538450418250026  8.4800283478930023  20.510205082399999  
1072  2  8.1518162022750023  16.99752042521699  0.77138949854999994  
1073  2  8.1513762129750056  16.996005535657996  10.607415339399999  
1074  2  8.1538572637499946  16.990643847892997  20.510048359624999  
1075  2  8.1524884081499867  4.2311376019800004  3.2372133994749999  
1076  2  8.1515595418499878  4.2302524979679976  13.064149319374998  
1077  2  8.020283845424995  4.2836821420769979  22.793185745824999  
1078  2  8.1524884081499867  12.741753101980001  3.2371611585499998  
1079  2  8.1515595418499878  12.740799913044004  13.064149319374998  
1080  2  8.0202594015750019  12.794144450997999  22.792924541200001  
1081  2  11.704448695499986  5.3711685906670015  48.562066820574998  
1082  2  11.619347431725  5.3955429934589993  6.1309949579999996  
1083  2  11.620349629574998  5.3964621399329991  15.964826679999998  
1084  2  11.704558692825001  13.881784090666994  48.562014579649997  
1085  2  11.619359653650001  13.906124450996995  6.1309427170749995  
1086  2  11.620349629574998  13.907009555008997  15.964774439074999  
1087  2  11.620080747225003  9.6494550025170014  3.6755670011500001  
1088  2  11.618968552050001  9.6500167031400039  13.502973089375001  
1089  2  11.460743510999986  9.7763653008529996  23.399284957675  
1090  2  11.620080747225003  1.1387884388240013  3.6756192420750002  
1091  2  11.618980773974991  1.1393501394470043  13.502973089375001  
1092  2  11.460657957524996  1.2657668220840017  23.399180475824998  
1093  2  11.614116447824996  9.6407571534760024  50.999941826624998  
1094  2  11.619298544024993  9.6507996797659992  8.5890349610999994  
1095  2  11.613297578849989  9.6447911852229993  18.419471022974999  
1096  2  11.614165335525003  1.1301076110139974  51.000046308474992  
1097  2  11.61928632209999  1.1401501373039951  8.5889827201750002  
1098  2  11.613395354250004  1.1341076002989972  18.419366541124997  
1099  2  11.623075118849988  5.3980621356469962  1.212877555725  
1100  2  11.618797445099998  5.3948451229880003  11.046395832175  
1101  2  11.639929153424999  5.357330329864002  20.8549951874  
1102  2  11.623099562700002  13.908592529491999  1.2128253147999999  
1103  2  11.618797445099998  13.905409559294993  11.046343591249999  
1104  2  11.639929153424999  13.867996893557009  20.854942946474999  
1105  2  11.628024998474997  3.6326200563270032  49.563682075599999  
1106  2  11.619176324774998  3.6485689497740026  7.1408642791750001  
1107  2  11.621987367524989  3.6426625826170009  16.973703423599996  
1108  2  11.628024998474997  12.143235556327003  49.563577593749997  
1109  2  11.619164102849984  12.159201471004998  7.1408642791750001  
1110  2  11.621962923674996  12.153278082617001  16.973703423599996  
1111  2  11.596883533574996  7.8987873517050016  47.153599241649999  
1112  2  11.619225212474992  7.9034511689990037  4.6837646127249997  
1113  2  11.618125239225002  7.9028554259140034  14.510805014474998  
1114  2  11.596920199349992  16.409590085245998  47.153651482575  
1115  2  11.619249656324996  16.414015605305988  4.6837123717999996  
1116  2  11.618161904999985  16.413419862220991  14.510752773549999  
1117  2  11.618394121574985  7.9036554237710019  51.994400074924997  
1118  2  11.618907442424993  7.9032809566890023  9.5984341139500007  
1119  2  11.612552041425005  7.9001320289540011  19.459117671399998  
1120  2  11.618443009274992  16.414185817616005  51.994400074924997  
1121  2  11.618919664349994  16.413811350534004  9.5984341139500007  
1122  2  11.612625372975005  16.410747528954008  19.458856466775  
1123  2  11.620398517275005  3.647615760837998  2.22598581425  
1124  2  11.618919664349994  3.6481093765369987  12.055794985024999  
1125  2  11.639721380700003  3.7077007062679987  21.825997260375001  
1126  2  11.620398517275005  12.158248282069  2.2259335733249999  
1127  2  11.618907442424993  12.158741897768001  12.055794985024999  
1128  2  11.639660271074995  12.218316206267998  21.826101742224999  
1129  2  11.635565926199998  5.3831685585220006  50.555580518574999  
1130  2  11.618931886274984  5.3954408660730007  8.1497932636999995  
1131  2  11.62649725785  5.407645088699998  17.970669236300001  
1132  2  11.635590370049989  13.893732994828994  50.555528277649998  
1133  2  11.618907442424993  13.906022323610996  8.1497932636999995  
1134  2  11.626509479774992  13.918243567469004  17.970669236300001  
1135  2  11.586482675399987  9.6300507991770026  48.05882999005  
1136  2  11.619335209799997  9.650833722227997  5.6929025609499995  
1137  2  11.618675225849993  9.6466805418639989  15.520465371950001  
1138  2  11.586494897324988  1.1194523204080047  48.058934471899995  
1139  2  11.619322987874996  1.140184179766  5.6929025609499995  
1140  2  11.618687447774994  1.136082063095001  15.520360890100001  
1141  2  11.618076351524985  9.6499996819090015  0.77938236007499995  
1142  2  11.619029661674999  9.6505103188389967  10.606945171074999  
1143  2  11.606624407799991  9.6103912773719991  20.479748623125001  
1144  2  11.618076351524985  1.1393501394470043  0.77943460099999995  
1145  2  11.619017439749996  1.1398607763769999  10.606945171074999  
1146  2  11.606758848974998  1.0997757773720058  20.479539659425001  
1147  2  11.619921862199993  5.3954578873040031  3.2332430891749997  
1148  2  11.618430787350002  5.3940281038999993  13.066656883774998  
1149  2  11.784428972699995  5.3825047305129985  22.822858591225  
1150  2  11.619934084125006  13.906022323610996  3.2332430891749997  
1151  2  11.618443009274992  13.904558497745002  13.066656883774998  
1152  2  11.78438008499999  13.893171294205999  22.822806350299999  
1153  2  2.4422706069749998  3.825470603556997  49.5741302606  
1154  2  2.4448372112250003  3.8101855381189993  7.1406030745499995  
1155  2  2.4426250427999951  3.8136408480119988  16.973651182674999  
1156  2  2.4422828289000016  12.336069082326002  49.574025778749998  
1157  2  2.444849433149991  12.320766995657003  7.1406030745499995  
1158  2  2.4426617085750002  12.324205284319  16.973598941749998  
1159  2  2.4927593791500011  7.9863445639690029  47.170159614874997  
1160  2  2.4452283128250007  8.065765627814999  4.6834511671749999  
1161  2  2.444776101599992  8.0638081862499984  14.510909496324999  
1162  2  2.4927960449249955  16.497028148892998  47.170107373949996  
1163  2  2.4452405347499915  16.576330064122008  4.6833989262499998  
1164  2  2.4448127673749971  16.574372622556993  14.510857255399999  
1165  2  2.4459005186999971  8.0651698847300004  52.003751200499998  
1166  2  2.444714991974994  8.0652209484229989  9.5982251502500002  
1167  2  2.4459738502499966  8.0618167022230001  19.444594694249997  
1168  2  2.4459371844749911  16.575734321037007  52.003751200499998  
1169  2  2.4447027700499926  16.575768363498998  9.5982251502500002  
1170  2  2.4460227379499924  16.572415180991996  19.444437971475001  
1171  2  2.4449349866249923  3.812211064608003  2.2255156459249998  
1172  2  2.4445438850249919  3.8094876676480003  12.055324816699999  
1173  2  2.438310703275  3.8223216758220024  21.852169963799998  
1174  2  2.4449594304749849  12.322792522145999  2.2254634049999997  
1175  2  2.4445683288749844  12.320035082723999  12.055377057625  
1176  2  2.4382740374999838  12.332971218283999  21.852222204724999  
1177  2  2.4555680613750024  5.333262309230002  50.41886601785  
1178  2  2.4446538823499857  5.3147432099019989  8.0095263800750001  
1179  2  2.4493593234750031  5.3233729740190032  17.836514540899998  
1180  2  2.4555925052249949  13.843843766768005  50.418813776924999  
1181  2  2.4446416604249839  13.825307646209  8.0095263800750001  
1182  2  2.4494082111749882  13.833954431557006  17.836462299974997  
1183  2  2.4048592945500027  9.5671233081699967  47.903152033549993  
1184  2  2.4450205400999936  9.5704084057530032  5.551799822525  
1185  2  2.4440550080249994  9.5666637349330017  15.382288125324999  
1186  2  2.4048715164750045  1.0565758930939995  47.903152033549993  
1187  2  2.4450205400999936  1.0597418420600035  5.5517475815999999  
1188  2  2.444079451874992  1.0560141924709965  15.382183643475001  
1189  2  2.4428083716749991  9.567991390950997  0.63629446649999999  
1190  2  2.444776101599992  9.5698467051300007  10.466939492074999  
1191  2  2.4204544708500007  9.5729275479409992  20.287502019125  
1192  2  2.4428205936000009  1.0573248272579983  0.63634670742499999  
1193  2  2.444776101599992  1.0591801414370006  10.466939492074999  
1194  2  2.4204666927750025  1.062312047941  20.287345296350001  
1195  2  2.4455949705749975  5.3167517151599997  3.0951180834750001  
1196  2  2.4442138930500001  5.3140964031239992  12.924091399449999  
1197  2  2.5143432986999894  5.3092453522890013  22.818261389824997  
1198  2  2.4456071924999994  13.827316151467  3.0950658425499999  
1199  2  2.4442383368999927  13.824626796969001  12.924091399449999  
1200  2  2.5143310767749876  13.81992893721301  22.818209148899999  
1201  2  2.4726420906000008  5.3104708809209988  48.658817013674998  
1202  2  2.4447883235249934  5.3149815071360011  6.2719932145749997  
1203  2  2.4453994197749922  5.3168198000840095  16.100339639449999  
1204  2  2.4726665344499934  13.821120423383011  48.658712531825003  
1205  2  2.4447883235249934  13.825545943443002  6.2719932145749997  
1206  2  2.4454116417000047  13.827367215159992  16.1002351576  
1207  2  2.4453749759249996  9.5698296838989982  3.8138487296249997  
1208  2  2.4445927727249988  9.5692850045069981  13.644598237049998  
1209  2  2.3415497230500004  9.3293537323309987  23.524036286574997  
1210  2  2.4453871978499904  1.0591460989749959  3.8138487296249997  
1211  2  2.4446294384999931  1.058635462045  13.644545996124998  
1212  2  2.3413419503249933  0.81858504125199283  23.524088527499998  
1213  2  2.4381151524750053  9.5689445798870025  51.140208710249993  
1214  2  2.4448249892999985  9.5698637263610031  8.7293018447249988  
1215  2  2.4352552220249852  9.5547829156950037  18.55273762265  
1216  2  2.4381518182499993  1.0582780161939953  51.140260951174994  
1217  2  2.4448127673749971  1.059197162668003  8.7293018447249988  
1218  2  2.4352796658749996  1.0441333732329987  18.552580899874997  
1219  2  2.4469149384749977  5.3187772416490029  1.3583162909249999  
1220  2  2.4444216657749855  5.314164488048001  11.186505993024999  
1221  2  2.4672888874500014  5.3587601132679978  21.059152722299999  
1222  2  2.4469271603999885  13.829324656725008  1.3582640499999998  
1223  2  2.4444338876999985  13.824711903123999  11.186505993024999  
1224  2  2.4672888874500014  13.869358592037003  21.059048240449997  
1225  2  1.0216429326750025  9.9683477653019992  50.418030163049998  
1226  2  1.0301493924749865  9.9853009113780029  8.0095263800750001  
1227  2  1.0243684219499927  9.9744073235380011  17.837141431999999  
1228  2  1.0216673765249951  1.4577152440709975  50.418082403974999  
1229  2  1.0301371705499849  1.4746513689160066  8.0095263800750001  
1230  2  1.0244050877249977  1.4637748023069979  17.837036950150001  
1231  2  1.0736350016249858  5.7337037897360013  47.904353574824995  
1232  2  1.0301982801749934  5.7302655010739967  5.5518520634499993  
1233  2  1.029990507449986  5.7315080509370038  15.382288125324999  
1234  2  1.0736961112499945  14.244404395890998  47.904301333900001  
1235  2  1.0301982801749934  14.240846958612  5.5518520634499993  
1236  2  1.029990507449986  14.242055466013001  15.382183643475001  
1237  2  1.0335959753249906  5.7336186835809961  0.63660791205  
1238  2  1.0296116277749874  5.7295335881409999  10.466939492074999  
1239  2  1.0535054911500055  5.723984666835003  20.286822887099998  
1240  2  1.0336204191750049  14.244149077426  0.63660791205  
1241  2  1.0296116277749874  14.240063981985996  10.466939492074999  
1242  2  1.0535054911500055  14.234549103142003  20.286718405249999  
1243  2  1.0302105020999841  9.9844158073660019  3.0949613606999997  
1244  2  1.0299782855249844  9.9846200621379992  12.924248122225  
1245  2  0.96176772210000261  9.9879562234139971  22.818679317224998  
1246  2  1.0302105020999841  1.4737662649040038  3.0950136016249998  
1247  2  1.029990507449986  1.473970519676002  12.924248122225  
1248  2  0.96170661247500488  1.477272638489995  22.818522594449998  
1249  2  1.0351481598000014  11.476207555899  49.573555610424997  
1250  2  1.0300149513000003  11.489994753008999  7.14081203825  
1251  2  1.0313471411250019  11.484088385851997  16.974173591924998  
1252  2  1.035160381725003  2.9655920558990072  49.573660092274999  
1253  2  1.0300271732250019  2.9793622317779969  7.14081203825  
1254  2  1.0313715849749945  2.9734728858520052  16.974173591924998  
1255  2  0.98800819507499049  7.3138697696210011  47.170786505974995  
1256  2  1.0301860582500024  7.235061470090999  4.6836078899499993  
1257  2  1.0291838604000034  7.2344657270059987  14.51096173725  
1258  2  0.98802041699999221  15.824553354545003  47.170734265050001  
1259  2  1.0301982801749934  15.745625906398006  4.6836078899499993  
1260  2  1.0292205261749869  15.745013142082005  14.510857255399999  
1261  2  1.0308704860500004  7.2364231685710001  52.003960164199995  
1262  2  1.029794956650002  7.2343295571580022  9.5984341139500007  
1263  2  1.0282916598749874  7.2357252981000011  19.444490212399998  
1264  2  1.0309193737499855  15.746987604878001  52.003960164199995  
1265  2  1.029794956650002  15.74485995100299  9.5983818730249997  
1266  2  1.0283772133499884  15.746289734407002  19.444333489624999  
1267  2  1.0310538149249935  11.489024542841999  2.2254634049999997  
1268  2  1.0297216251000028  11.489399009923998  12.05563826225  
1269  2  1.0363581303749858  11.474879899881003  21.852587891199999  
1270  2  1.0310538149249935  2.9783750003799949  2.2255156459249998  
1271  2  1.0297338470249935  2.9787664886930041  12.055586021324999  
1272  2  1.036394796150002  2.9642473786500005  21.852431168424999  
1273  2  1.0054611039749877  9.991207278534997  48.657719954249998  
1274  2  1.0302471678750003  9.9853860175330009  6.2719932145749997  
1275  2  1.0286827614749878  9.9810626248590015  16.10075756685  
1276  2  1.0054733258999893  1.4806258209969949  48.657772195174999  
1277  2  1.0302471678750003  1.4747364750710032  6.2719409736499996  
1278  2  1.0287072053250019  1.4704981885520005  16.100653084999998  
1279  2  1.0302227240249859  5.731133583854997  3.8139009705499998  
1280  2  1.0294894085250028  5.7290399724419991  13.644598237049998  
1281  2  1.1350012870499988  5.9686818836910023  23.520745108300002  
1282  2  1.0302471678750003  14.241680998931002  3.8139009705499998  
1283  2  1.0294894085250028  14.239570366286994  13.644545996124998  
1284  2  1.1348912897249943  14.479280362459999  23.520536144600001  
1285  2  1.038851403074998  5.7325123035660006  51.140678878574995  
1286  2  1.029794956650002  5.7298569915300002  8.7293540856499998  
1287  2  1.0384725233999992  5.742776105858999  18.552371936174996  
1288  2  1.0388758469250012  14.243059718641998  51.140678878574995  
1289  2  1.0297827347250004  14.240404406606006  8.7293540856499998  
1290  2  1.0385214110999843  14.253357563397001  18.552319695249999  
1291  2  1.0293183015750005  9.9825945356490031  1.3580550862999998  
1292  2  1.0299049539749849  9.9849264442959971  11.186662715799999  
1293  2  1.0069032911250047  9.9382031652009974  21.060563227274997  
1294  2  1.0293183015750005  1.4719449931870061  1.3581073272249999  
1295  2  1.0299049539749849  1.4742598806029972  11.186610474875  
1296  2  1.0069277349749863  1.427621707662994  21.060354263575  
1297  2  12.213112992074995  8.8143593671949976  49.528994101400002  
1298  2  0.0038865721500004947  8.8145976644290016  7.1408642791750001  
1299  2  0.0006477620250037009  8.8089806581990029  16.970464486250002  
1300  2  12.213161879775003  0.30374386719500568  49.529046342324996  
1301  2  0.0038621282999970782  0.30394812196700399  7.14081203825  
1302  2  0.00072109357500309583  0.29838217942999701  16.970307763474999  
1303  2  0.084074622074984687  4.4049073492590027  47.144613802549998  
1304  2  0.0043143395249951562  4.5598686362829985  4.6824063486750003  
1305  2  0.0040087913999958683  4.5588984261159995  14.51597686605  
1306  2  0.084135731699993235  12.915624976645002  47.144613802549998  
1307  2  0.004326561449996864  13.070433072590006  4.6824063486750003  
1308  2  0.0040087913999958683  13.069428819961002  14.515924625124997  
1309  2  0.012283034624990913  4.5563452414659977  52.009915629649996  
1310  2  0.0034465828499932703  4.5591367233500026  9.5979639456249988  
1311  2  0.02208501847500411  4.5553750312989987  19.400764558174998  
1312  2  0.012295256550003478  13.066875635311009  52.009863388725002  
1313  2  0.0034465828499932703  13.069684138426  9.5979639456249988  
1314  2  0.02208501847500411  13.065956488837001  19.400712317249997  
1315  2  0.00359324594999206  8.8123849043990017  2.2263515007249999  
1316  2  0.0034343609249915621  8.8141721336540026  12.055011371149998  
1317  2  12.146527944674991  8.7933892106029994  22.018087141599999  
1318  2  0.00359324594999206  0.30171834070599468  2.2263515007249999  
1319  2  0.0034343609249915621  0.30350556996100259  12.055011371149998  
1320  2  12.146552388525006  0.28277371060300738  22.01777369605  
1321  2  12.220983911774988  11.305059078194001  51.015143935799998  
1322  2  0.003764352900005122  11.322931370743998  8.5890872020250004  
1323  2  0.0066120614250015242  11.316769685121997  18.43007593075  
1324  2  12.221008355625003  2.7944435781940009  51.015300658575001  
1325  2  0.003764352900005122  2.8122818282819999  8.5890349610999994  
1326  2  0.0066976149000026282  2.8060861001979953  18.429971448899998  
1327  2  0.0027621550499844442  7.0569342876759995  48.552611213149994  
1328  2  0.0036421336499988933  7.0675044721270028  6.1317263309500003  
1329  2  0.0033488074500013141  7.069529998615999  15.959027937324999  
1330  2  0.0028477085249855477  15.567583830137989  48.552663454074995  
1331  2  0.0036421336499988933  15.57808592966499  6.1317263309500003  
1332  2  0.0033610293749921668  15.580094434923  15.958975696399998  
1333  2  0.0040576790999918462  7.0720831832660007  1.208175872475  
1334  2  0.0032754758999910638  7.0669768139660052  11.0468660005  
1335  2  12.219541724625003  7.0226194859800026  20.887175597199999  
1336  2  0.0040821229499952627  15.582596555880002  1.208175872475  
1337  2  0.0032754758999910638  15.577524229041995  11.0468660005  
1338  2  12.21960283424999  15.533269028442009  20.887018874424999  
1339  2  0.0050232111749965429  11.322369670121002  3.6745221826499996  
1340  2  0.0038254625249919531  11.322165415349003  13.5038611851  
1341  2  12.19916777564999  11.489807519468004  23.254211908949998  
1342  2  0.0050232111749965429  2.8117031064279945  3.6746266644999999  
1343  2  0.0038376844500045168  2.8115158728869987  13.503808944175001  
1344  2  12.199241107199988  2.9791409557749962  23.254107427099999  
1345  2  0.022390566600003398  11.352735546224999  48.106003545325002  
1346  2  0.0038865721500004947  11.322948391975  5.692745838175  
1347  2  0.0055120881749888906  11.319595209468  15.523547586525  
1348  2  0.022378344675001688  2.842120046224998  48.106108027174997  
1349  2  0.0038743502249987865  2.8122988495130019  5.692745838175  
1350  2  0.005536532025003163  2.8090137519299962  15.523495345600001  
1351  2  0.0038499063749845145  7.068678937066001  3.235019280625  
1352  2  0.0023954972999983251  7.0659044764129986  13.0637836329  
1353  2  0.01307745975000426  7.0508747294399994  22.734310223350001  
1354  2  0.0038743502249987865  15.579226352141999  3.235019280625  
1355  2  0.0024077192250000334  15.576434870258002  13.063731391974999  
1356  2  0.013101903599996821  15.561507250671001  22.734257982425  
1357  2  0.0070276068750053326  7.0598619394080009  50.547326452424997  
1358  2  0.0035076924749909569  7.0675214933579982  8.1500022273999999  
1359  2  0.0027377111999918827  7.081836348629003  17.994177652549997  
1360  2  0.0070642726499887468  15.570426375715002  50.547326452424997  
1361  2  0.0034954705500001037  15.578068908434004  8.1499499864750007  
1362  2  0.002811042750002133  15.59241780616699  17.994020929774997  
1363  2  0.0044610026250048009  11.320939886716998  0.77640462734999993  
1364  2  0.0035199143999926651  11.322590946124002  10.607363098475  
1365  2  0.0074675961750017015  11.283254881283  20.426933047949998  
1366  2  0.0044610026250048009  2.8102903442549936  0.77645686827499993  
1367  2  0.0035076924749909569  2.8119584248929996  10.607310857549999  
1368  2  0.0075531496500028054  2.7727244874380035  20.426776325174998  
1369  2  3.4778343122250051  3.9965169538759961  51.015927549674991  
1370  2  3.471026699999987  3.9770276443810011  8.588825997399999  
1371  2  3.4671890155500042  3.9809595487419989  18.429135594099996  
1372  2  3.4778465341499958  12.507081390182996  51.015823067824996  
1373  2  3.471026699999987  12.487609101919004  8.5887737564749997  
1374  2  3.4672501251749912  12.491541006280002  18.429083353174999  
1375  2  3.4769176678499965  8.2445566382390005  48.55177535835  
1376  2  3.4716133523999928  8.2330843285449991  6.131569608175  
1377  2  3.4706355983999866  8.2285566810990023  15.959027937324999  
1378  2  3.4769787774750047  16.755172138239001  48.551723117424999  
1379  2  3.4716133523999928  16.743665786083003  6.131569608175  
1380  2  3.4706600422500009  16.739138138637006  15.958923455475  
1381  2  3.4723711117500011  8.229594976190004  1.208071390625  
1382  2  3.4711366973250022  8.2323013519190038  11.046604795875  
1383  2  3.4773698790750052  8.274548047260998  20.887227838125  
1384  2  3.4723833336749919  16.740142391266009  1.2081236315499999  
1385  2  3.471148919250004  16.742848766994996  11.046604795875  
1386  2  3.4773209913749876  16.785163547260989  20.887123356274998  
1387  2  3.4707578176500036  3.9787467887119994  3.6746266644999999  
1388  2  3.4704889352999877  3.9764659437579981  13.503495498625  
1389  2  3.4998704430000021  3.8078025657789989  23.252435717499999  
1390  2  3.4707578176500036  12.489294203787997  3.6745744235749997  
1391  2  3.470513379150002  12.486996337603001  13.503495498625  
1392  2  3.4999315526250001  12.318639341781999  23.252435717499999  
1393  2  3.4864507693499935  6.4875060258020021  49.530038919899994  
1394  2  3.4710878096249953  6.48559964793  7.1409687610250003  
1395  2  3.4733488657499967  6.4889868728989972  16.970203281625  
1396  2  3.4864874351249986  14.998138547032996  49.530038919899994  
1397  2  3.4710633657750027  14.99614706300599  7.1409687610250003  
1398  2  3.4733610876749985  14.999551309205998  16.970098799774998  
1399  2  3.3957640858499967  10.897400595743999  47.144143634225003  
1400  2  3.4710878096249953  10.740890376698998  4.6825630714499997  
1401  2  3.4701222775500016  10.739341444678001  14.51597686605  
1402  2  3.3958863051000026  2.3869382868230047  47.144352597925  
1403  2  3.4711000315499865  2.2302408342369926  4.6825630714499997  
1404  2  3.4701344994750034  2.2287089234470052  14.515924625124997  
1405  2  3.4643779728000021  10.745111641986998  52.009758906875  
1406  2  3.471026699999987  10.740413782230998  9.598068427474999  
1407  2  3.451606061174997  10.741860586865997  19.400816799099999  
1408  2  3.4643901947249929  2.2344280570630035  52.009811147800001  
1409  2  3.4710144780749852  2.2297642397690014  9.5980161865499998  
1410  2  3.451606061174997  2.2312280656349945  19.400660076325  
1411  2  3.4724444433000006  6.4889017667440001  2.2265604644249999  
1412  2  3.4707578176500036  6.4847996500730014  12.055011371149998  
1413  2  3.550346993250002  6.5035059829420003  22.016101986449996  
1414  2  3.4724566652250024  14.999449181819998  2.2265082234999998  
1415  2  3.4707944834249869  14.995313022687002  12.055011371149998  
1416  2  3.5502614397749901  15.014155525403991  22.015945263675  
1417  2  3.4550770878750048  3.9490106981550004  48.106839400124997  
1418  2  3.4711244754000008  3.9775042388489994  5.6925368744749996  
1419  2  3.4685212053749952  3.978304236705998  15.522868454499999  
1420  2  3.455064865950003  12.459660240616998  48.106682677349994  
1421  2  3.4711366973250022  12.488068675156001  5.6925368744749996  
1422  2  3.4685578711499891  12.488817609319998  15.522816213574998  
1423  2  3.4717600155000028  8.232352415612004  3.2348625578499997  
1424  2  3.4717233497249866  8.2326247553080041  13.06367915105  
1425  2  3.4630824487499945  8.2467864195000029  22.734414705199999  
1426  2  3.4717722374249935  16.742916851919006  3.2348625578499997  
1427  2  3.4717600155000028  16.743206212846008  13.063626910124999  
1428  2  3.4629846733500025  16.757061494880009  22.734675909824997  
1429  2  3.470256718724988  8.241509837889998  50.547117488725  
1430  2  3.4711244754000008  8.2323013519190038  8.1497932636999995  
1431  2  3.4712344727249942  8.2160971400069993  17.993916447924999  
1432  2  3.4702933845000037  16.752074274197  50.547117488725  
1433  2  3.4711000315499865  16.742865788225998  8.1497932636999995  
1434  2  3.4712711384999992  16.726712640006991  17.993811966075  
1435  2  3.4717722374249935  3.9804659330429977  0.77666583197499994  
1436  2  3.4708067053499998  3.976499986220003  10.607101893849999  
1437  2  3.466150151925  4.0140318005750029  20.424686688175001  
1438  2  3.4717844593499843  12.491030369349998  0.77656135012499994  
1439  2  3.4708067053499998  12.487047401296001  10.607101893849999  
1440  2  3.4661134861499843  12.524494109495997  20.424686688175001  
