TITL FeB2.vasp  9.99763660074487  82.89974161578984  -90.22960341422827 0 0 12 (Pnma)  n - 1
REM
REM
CELL 1.54180    4.794959    4.755363    3.635671    90.0    90.0    90.0    
LATT -1
SFAC Fe  B  
Fe  1  0.521397069230489  0.7499999999988849  0.3754587821370903  1.0  
Fe  1  0.021397069230528424  0.750000000000873  0.12454121786292621  1.0  
Fe  1  0.47860293076951177  0.2500000000011144  0.6245412178629105  1.0  
Fe  1  0.9786029307694721  0.24999999999912637  0.8754587821370741  1.0  
B  1  0.3373172042032745  0.06886292480150669  0.1092347463198639  1.0  
B  1  0.8373172042032293  0.431137075198798  0.3907652536800096  1.0  
B  1  0.6626827957972997  0.5688629247992909  0.8907652536844649  1.0  
B  1  0.162682795797227  0.9311370752003933  0.6092347463152946  1.0  
B  1  0.662682795796726  0.9311370751984928  0.8907652536801367  1.0  
B  1  0.16268279579677147  0.5688629248012016  0.6092347463199906  1.0  
B  1  0.3373172042027008  0.4311370752007086  0.10923474631553534  1.0  
B  1  0.8373172042027737  0.0688629247996061  0.3907652536847058  1.0  
END
