TITL Fe23B6.vasp  -0.00035134926693727473  302.4069790313937  -378.8056535193295 0 0 29 (Fm-3m)  n - 1
REM
REM
CELL 1.54180    7.534173    7.534173    7.534173    60.0    60.0    60.0    
LATT -1
SFAC Fe  B  
Fe  1  0.9999999999999997  0.9999999999999997  6.306059535126187e-16  1.0  
Fe  1  0.2500000000000009  0.2500000000000103  0.24999999999999314  1.0  
Fe  1  0.7499999999999958  0.7499999999999871  0.7500000000000097  1.0  
Fe  1  0.9999999999999972  0.34318679681331377  0.9999999999999972  1.0  
Fe  1  0.3431867968133165  0.9999999999999979  0.9999999999999998  1.0  
Fe  1  0.9999999999999957  0.3431867968133131  0.6568132031866931  1.0  
Fe  1  0.6568132031866781  0.9999999999999991  0.34318679681331915  1.0  
Fe  1  0.3431867968133193  0.999999999999999  0.6568132031866827  1.0  
Fe  1  6.668675782934643e-16  0.9999999999999989  0.343186796813324  1.0  
Fe  1  0.6568132031866949  0.34318679681330744  0.9999999999999981  1.0  
Fe  1  2.061953026453023e-15  0.656813203186685  0.34318679681330877  1.0  
Fe  1  0.9999999999999973  2.5007534186022184e-16  0.6568132031866766  1.0  
Fe  1  0.3431867968133048  0.6568132031866912  3.125941773295174e-15  1.0  
Fe  1  0.6568132031866826  4.828203846519082e-16  2.2362411522287305e-15  1.0  
Fe  1  9.767985323711645e-16  0.656813203186685  4.626393824476857e-15  1.0  
Fe  1  0.38264523471257716  0.3826452347125679  0.3826452347125945  1.0  
Fe  1  0.1479357041377454  0.6173547652874305  0.6173547652874088  1.0  
Fe  1  0.617354765287419  0.14793570413775606  0.6173547652874127  1.0  
Fe  1  0.6173547652874166  0.6173547652874325  0.14793570413773938  1.0  
Fe  1  0.382645234712577  0.8520642958622427  0.38264523471258916  1.0  
Fe  1  0.38264523471258005  0.38264523471256523  0.8520642958622636  1.0  
Fe  1  0.8520642958622512  0.38264523471256817  0.3826452347125928  1.0  
Fe  1  0.6173547652874196  0.6173547652874295  0.6173547652874082  1.0  
B  1  0.27583715007938686  0.7241628499206128  0.275837150079391  1.0  
B  1  0.2758371500793873  0.7241628499206121  0.7241628499206065  1.0  
B  1  0.7241628499206094  0.27583715007938775  0.2758371500793934  1.0  
B  1  0.7241628499206076  0.7241628499206115  0.2758371500793902  1.0  
B  1  0.27583715007938825  0.2758371500793875  0.7241628499206111  1.0  
B  1  0.724162849920611  0.2758371500793859  0.7241628499206095  1.0  
END
