TITL Fe3B.vasp  0.004436925167183717  156.88630360928752  -129.91420512421863 0 0 16 (Pnma)  n - 1
REM
REM
CELL 1.54180    4.423535    5.367081    6.608112    89.998309    89.999657    89.999312    
LATT -1
SFAC Fe  B  
Fe  1  0.623851310152984  0.9759359864914516  0.25000001035560027  1.0  
Fe  1  0.6484286763801551  0.6781297543407525  0.5551837252637595  1.0  
Fe  1  0.6484290628937588  0.6781299825316711  0.9448163528044927  1.0  
Fe  1  0.8515712440926324  0.17812972424594384  0.5551837309902291  1.0  
Fe  1  0.8515708845191385  0.17812994075782007  0.94481636246618  1.0  
Fe  1  0.8761486765027747  0.47593594442332837  0.25000003981689917  1.0  
Fe  1  0.12385132349722267  0.5240640555766708  0.7499999601831031  1.0  
Fe  1  0.14842911548085894  0.8218700592421793  0.055183637533822175  1.0  
Fe  1  0.1484287559073649  0.8218702757540558  0.4448162690097731  1.0  
Fe  1  0.35157093710623843  0.32187001746832805  0.0551836471955098  1.0  
Fe  1  0.3515713236198428  0.3218702456592469  0.4448162747362426  1.0  
Fe  1  0.3761486898470138  0.024064013508547283  0.749999989644402  1.0  
B  1  0.5725546339719488  0.38334735459418634  0.7499999561245052  1.0  
B  1  0.9274454081400689  0.8833473718741632  0.7499999804822569  1.0  
B  1  0.07255459185992849  0.11665262812583603  0.2500000195177455  1.0  
B  1  0.4274453660280485  0.6166526454058129  0.25000004387549735  1.0  
END
