TITL B_small.vasp  10.0009078303875293229  258.32430762252807  -.24857015E+03 0 0 36 (R-3m)  n - 1
REM
REM
CELL 1.54180    4.910193    4.910193    12.37193    89.999987    90.00001    120.000001    
LATT -1
SFAC B  
B  1  0.11805841703944155  0.8819415827912797  0.8912407117525915  1.0  
B  1  0.11805841731667631  0.23611683409372944  0.8912407114796995  1.0  
B  1  0.7638831658761766  0.881941582583637  0.8912407115396977  1.0  
B  1  0.5694501674571574  0.7847250840830271  0.7754259551269659  1.0  
B  1  0.21527491629389237  0.7847250838753846  0.7754259549140724  1.0  
B  1  0.21527491601665738  0.4305498325729354  0.7754259551869646  1.0  
B  1  0.5299212573402846  0.470078742727012  0.6911776193453115  1.0  
B  1  0.5299212571997424  0.05984251469380786  0.6911776197463791  1.0  
B  1  0.940157485340466  0.47007874285104245  0.6911776196550754  1.0  
B  1  0.39317584799286787  0.1965879238156229  0.9754890470115888  1.0  
B  1  0.8034120759930492  0.19658792393965327  0.9754890473213527  1.0  
B  1  0.803412076133591  0.606824151972857  0.9754890469202845  1.0  
B  1  0.7847250837061079  0.21527491612461355  0.22457404508592502  1.0  
B  1  0.7847250839833428  0.5694501674270623  0.22457404481303317  1.0  
B  1  0.4305498325428432  0.21527491591697118  0.22457404487303215  1.0  
B  1  0.2361168341238236  0.11805841741636093  0.10875928846029954  1.0  
B  1  0.8819415829605588  0.1180584172087188  0.10875928824740648  1.0  
B  1  0.8819415826833241  0.7638831659062684  0.10875928852029841  1.0  
B  1  0.1965879240069515  0.803412076060345  0.024510952678645108  1.0  
B  1  0.19658792386640933  0.3931758480271411  0.02451095307971308  1.0  
B  1  0.6068241520071325  0.8034120761843754  0.024510952988409534  1.0  
B  1  0.05984251465953463  0.5299212571489559  0.308822380344922  1.0  
B  1  0.4700787426597157  0.5299212572729864  0.3088223806546865  1.0  
B  1  0.4700787428002578  0.9401574853061903  0.30882238025361847  1.0  
B  1  0.4513917503727751  0.5486082494579468  0.557907378419258  1.0  
B  1  0.4513917506500098  0.9027835007603956  0.5579073781463663  1.0  
B  1  0.09721649920950973  0.5486082492503038  0.5579073782063646  1.0  
B  1  0.9027835007904906  0.4513917507496941  0.44209262179363257  1.0  
B  1  0.5486082496272257  0.4513917505420516  0.4420926215807396  1.0  
B  1  0.5486082493499908  0.09721649923960264  0.44209262185363135  1.0  
B  1  0.8632545906736176  0.13674540939367857  0.3578442860119784  1.0  
B  1  0.8632545905330761  0.7265091813604739  0.35784428641304605  1.0  
B  1  0.27349081867379876  0.13674540951770892  0.3578442863217427  1.0  
B  1  0.726509181326202  0.8632545904822893  0.6421557136782551  1.0  
B  1  0.13674540932638263  0.8632545906063194  0.6421557139880191  1.0  
B  1  0.1367454094669241  0.27349081863952396  0.6421557135869511  1.0  
END
