TITL Fe2B.vasp  10.009583951024984  52.38289446335104  -73.76989126004129 0 0 6 (I4/mcm)  n - 1
REM
REM
CELL 1.54180    4.114205    4.114205    4.114205    104.746194    104.746194    119.401369    
LATT -1
SFAC Fe  B  
Fe  1  0.16684193030136926  0.6668419303013696  0.8336838606027388  1.0  
Fe  1  0.33315806969862966  0.16684193030136993  0.4999999999999996  1.0  
Fe  1  0.8331580696986298  0.3331580696986302  0.16631613939725967  1.0  
Fe  1  0.6668419303013694  0.83315806969863  0.49999999999999944  1.0  
B  1  0.24999999999999986  0.24999999999999994  0.9999999999999998  1.0  
B  1  0.7499999999999996  0.7499999999999997  0.9999999999999997  1.0  
END
