"B16 Cr4"
1.0
       14.5384664536         0.0000000000         0.0000000000
        0.0000000000        14.3118238449         0.0000000000
        0.0000000000         0.0000000000        14.5466880798
    B   Cr
  320   80
Direct
     0.089468355         0.428932230         0.498478229
     0.089468355         0.428932230         0.998478229
     0.089468355         0.928932230         0.498478229
     0.089468355         0.928932230         0.998478229
     0.289468355         0.428932230         0.498478229
     0.289468355         0.428932230         0.998478229
     0.289468355         0.928932230         0.498478229
     0.289468355         0.928932230         0.998478229
     0.489468355         0.428932230         0.498478229
     0.489468355         0.428932230         0.998478229
     0.489468355         0.928932230         0.498478229
     0.489468355         0.928932230         0.998478229
     0.689468355         0.428932230         0.498478229
     0.689468355         0.428932230         0.998478229
     0.689468355         0.928932230         0.498478229
     0.689468355         0.928932230         0.998478229
     0.889468355         0.428932230         0.498478229
     0.889468355         0.428932230         0.998478229
     0.889468355         0.928932230         0.498478229
     0.889468355         0.928932230         0.998478229
     0.089467903         0.279107167         0.188750104
     0.089467903         0.279107167         0.688750104
     0.089467903         0.779107167         0.188750104
     0.089467903         0.779107167         0.688750104
     0.289467903         0.279107167         0.188750104
     0.289467903         0.279107167         0.688750104
     0.289467903         0.779107167         0.188750104
     0.289467903         0.779107167         0.688750104
     0.489467903         0.279107167         0.188750104
     0.489467903         0.279107167         0.688750104
     0.489467903         0.779107167         0.188750104
     0.489467903         0.779107167         0.688750104
     0.689467903         0.279107167         0.188750104
     0.689467903         0.279107167         0.688750104
     0.689467903         0.779107167         0.188750104
     0.689467903         0.779107167         0.688750104
     0.889467903         0.279107167         0.188750104
     0.889467903         0.279107167         0.688750104
     0.889467903         0.779107167         0.188750104
     0.889467903         0.779107167         0.688750104
     0.189177494         0.484298788         0.161197871
     0.189177494         0.484298788         0.661197871
     0.189177494         0.984298788         0.161197871
     0.189177494         0.984298788         0.661197871
     0.389177494         0.484298788         0.161197871
     0.389177494         0.484298788         0.661197871
     0.389177494         0.984298788         0.161197871
     0.389177494         0.984298788         0.661197871
     0.589177494         0.484298788         0.161197871
     0.589177494         0.484298788         0.661197871
     0.589177494         0.984298788         0.161197871
     0.589177494         0.984298788         0.661197871
     0.789177494         0.484298788         0.161197871
     0.789177494         0.484298788         0.661197871
     0.789177494         0.984298788         0.161197871
     0.789177494         0.984298788         0.661197871
     0.989177494         0.484298788         0.161197871
     0.989177494         0.484298788         0.661197871
     0.989177494         0.984298788         0.161197871
     0.989177494         0.984298788         0.661197871
     0.088921114         0.324740225         0.407027010
     0.088921114         0.324740225         0.907027010
     0.088921114         0.824740225         0.407027010
     0.088921114         0.824740225         0.907027010
     0.288921114         0.324740225         0.407027010
     0.288921114         0.324740225         0.907027010
     0.288921114         0.824740225         0.407027010
     0.288921114         0.824740225         0.907027010
     0.488921114         0.324740225         0.407027010
     0.488921114         0.324740225         0.907027010
     0.488921114         0.824740225         0.407027010
     0.488921114         0.824740225         0.907027010
     0.688921114         0.324740225         0.407027010
     0.688921114         0.324740225         0.907027010
     0.688921114         0.824740225         0.407027010
     0.688921114         0.824740225         0.907027010
     0.888921114         0.324740225         0.407027010
     0.888921114         0.324740225         0.907027010
     0.888921114         0.824740225         0.407027010
     0.888921114         0.824740225         0.907027010
     0.088662056         0.418399565         0.332479855
     0.088662056         0.418399565         0.832479855
     0.088662056         0.918399565         0.332479855
     0.088662056         0.918399565         0.832479855
     0.288662056         0.418399565         0.332479855
     0.288662056         0.418399565         0.832479855
     0.288662056         0.918399565         0.332479855
     0.288662056         0.918399565         0.832479855
     0.488662056         0.418399565         0.332479855
     0.488662056         0.418399565         0.832479855
     0.488662056         0.918399565         0.332479855
     0.488662056         0.918399565         0.832479855
     0.688662056         0.418399565         0.332479855
     0.688662056         0.418399565         0.832479855
     0.688662056         0.918399565         0.332479855
     0.688662056         0.918399565         0.832479855
     0.888662056         0.418399565         0.332479855
     0.888662056         0.418399565         0.832479855
     0.888662056         0.918399565         0.332479855
     0.888662056         0.918399565         0.832479855
     0.089567360         0.012911827         0.419851159
     0.089567360         0.012911827         0.919851159
     0.089567360         0.512911827         0.419851159
     0.089567360         0.512911827         0.919851159
     0.289567360         0.012911827         0.419851159
     0.289567360         0.012911827         0.919851159
     0.289567360         0.512911827         0.419851159
     0.289567360         0.512911827         0.919851159
     0.489567360         0.012911827         0.419851159
     0.489567360         0.012911827         0.919851159
     0.489567360         0.512911827         0.419851159
     0.489567360         0.512911827         0.919851159
     0.689567360         0.012911827         0.419851159
     0.689567360         0.012911827         0.919851159
     0.689567360         0.512911827         0.419851159
     0.689567360         0.512911827         0.919851159
     0.889567360         0.012911827         0.419851159
     0.889567360         0.012911827         0.919851159
     0.889567360         0.512911827         0.419851159
     0.889567360         0.512911827         0.919851159
     0.089067676         0.056708433         0.153195523
     0.089067676         0.056708433         0.653195523
     0.089067676         0.556708433         0.153195523
     0.089067676         0.556708433         0.653195523
     0.289067676         0.056708433         0.153195523
     0.289067676         0.056708433         0.653195523
     0.289067676         0.556708433         0.153195523
     0.289067676         0.556708433         0.653195523
     0.489067676         0.056708433         0.153195523
     0.489067676         0.056708433         0.653195523
     0.489067676         0.556708433         0.153195523
     0.489067676         0.556708433         0.653195523
     0.689067676         0.056708433         0.153195523
     0.689067676         0.056708433         0.653195523
     0.689067676         0.556708433         0.153195523
     0.689067676         0.556708433         0.653195523
     0.889067676         0.056708433         0.153195523
     0.889067676         0.056708433         0.653195523
     0.889067676         0.556708433         0.153195523
     0.889067676         0.556708433         0.653195523
     0.088927556         0.157440268         0.092854537
     0.088927556         0.157440268         0.592854537
     0.088927556         0.657440268         0.092854537
     0.088927556         0.657440268         0.592854537
     0.288927556         0.157440268         0.092854537
     0.288927556         0.157440268         0.592854537
     0.288927556         0.657440268         0.092854537
     0.288927556         0.657440268         0.592854537
     0.488927556         0.157440268         0.092854537
     0.488927556         0.157440268         0.592854537
     0.488927556         0.657440268         0.092854537
     0.488927556         0.657440268         0.592854537
     0.688927556         0.157440268         0.092854537
     0.688927556         0.157440268         0.592854537
     0.688927556         0.657440268         0.092854537
     0.688927556         0.657440268         0.592854537
     0.888927556         0.157440268         0.092854537
     0.888927556         0.157440268         0.592854537
     0.888927556         0.657440268         0.092854537
     0.888927556         0.657440268         0.592854537
     0.188657494         0.442295986         0.270295623
     0.188657494         0.442295986         0.770295623
     0.188657494         0.942295986         0.270295623
     0.188657494         0.942295986         0.770295623
     0.388657494         0.442295986         0.270295623
     0.388657494         0.442295986         0.770295623
     0.388657494         0.942295986         0.270295623
     0.388657494         0.942295986         0.770295623
     0.588657494         0.442295986         0.270295623
     0.588657494         0.442295986         0.770295623
     0.588657494         0.942295986         0.270295623
     0.588657494         0.942295986         0.770295623
     0.788657494         0.442295986         0.270295623
     0.788657494         0.442295986         0.770295623
     0.788657494         0.942295986         0.270295623
     0.788657494         0.942295986         0.770295623
     0.988657494         0.442295986         0.270295623
     0.988657494         0.442295986         0.770295623
     0.988657494         0.942295986         0.270295623
     0.988657494         0.942295986         0.770295623
     0.188778204         0.189516960         0.029836359
     0.188778204         0.189516960         0.529836359
     0.188778204         0.689516960         0.029836359
     0.188778204         0.689516960         0.529836359
     0.388778204         0.189516960         0.029836359
     0.388778204         0.189516960         0.529836359
     0.388778204         0.689516960         0.029836359
     0.388778204         0.689516960         0.529836359
     0.588778204         0.189516960         0.029836359
     0.588778204         0.189516960         0.529836359
     0.588778204         0.689516960         0.029836359
     0.588778204         0.689516960         0.529836359
     0.788778204         0.189516960         0.029836359
     0.788778204         0.189516960         0.529836359
     0.788778204         0.689516960         0.029836359
     0.788778204         0.689516960         0.529836359
     0.988778204         0.189516960         0.029836359
     0.988778204         0.189516960         0.529836359
     0.988778204         0.689516960         0.029836359
     0.988778204         0.689516960         0.529836359
     0.189823613         0.038959642         0.362685232
     0.189823613         0.038959642         0.862685232
     0.189823613         0.538959642         0.362685232
     0.189823613         0.538959642         0.862685232
     0.389823613         0.038959642         0.362685232
     0.389823613         0.038959642         0.862685232
     0.389823613         0.538959642         0.362685232
     0.389823613         0.538959642         0.862685232
     0.589823613         0.038959642         0.362685232
     0.589823613         0.038959642         0.862685232
     0.589823613         0.538959642         0.362685232
     0.589823613         0.538959642         0.862685232
     0.789823613         0.038959642         0.362685232
     0.789823613         0.038959642         0.862685232
     0.789823613         0.538959642         0.362685232
     0.789823613         0.538959642         0.862685232
     0.989823613         0.038959642         0.362685232
     0.989823613         0.038959642         0.862685232
     0.989823613         0.538959642         0.362685232
     0.989823613         0.538959642         0.862685232
     0.189531062         0.408295612         0.065188515
     0.189531062         0.408295612         0.565188515
     0.189531062         0.908295612         0.065188515
     0.189531062         0.908295612         0.565188515
     0.389531062         0.408295612         0.065188515
     0.389531062         0.408295612         0.565188515
     0.389531062         0.908295612         0.065188515
     0.389531062         0.908295612         0.565188515
     0.589531062         0.408295612         0.065188515
     0.589531062         0.408295612         0.565188515
     0.589531062         0.908295612         0.065188515
     0.589531062         0.908295612         0.565188515
     0.789531062         0.408295612         0.065188515
     0.789531062         0.408295612         0.565188515
     0.789531062         0.908295612         0.065188515
     0.789531062         0.908295612         0.565188515
     0.989531062         0.408295612         0.065188515
     0.989531062         0.408295612         0.565188515
     0.989531062         0.908295612         0.065188515
     0.989531062         0.908295612         0.565188515
     0.189481654         0.347379147         0.163705310
     0.189481654         0.347379147         0.663705310
     0.189481654         0.847379147         0.163705310
     0.189481654         0.847379147         0.663705310
     0.389481654         0.347379147         0.163705310
     0.389481654         0.347379147         0.663705310
     0.389481654         0.847379147         0.163705310
     0.389481654         0.847379147         0.663705310
     0.589481654         0.347379147         0.163705310
     0.589481654         0.347379147         0.663705310
     0.589481654         0.847379147         0.163705310
     0.589481654         0.847379147         0.663705310
     0.789481654         0.347379147         0.163705310
     0.789481654         0.347379147         0.663705310
     0.789481654         0.847379147         0.163705310
     0.789481654         0.847379147         0.663705310
     0.989481654         0.347379147         0.163705310
     0.989481654         0.347379147         0.663705310
     0.989481654         0.847379147         0.163705310
     0.989481654         0.847379147         0.663705310
     0.089048098         0.165121113         0.236251271
     0.089048098         0.165121113         0.736251271
     0.089048098         0.665121113         0.236251271
     0.089048098         0.665121113         0.736251271
     0.289048098         0.165121113         0.236251271
     0.289048098         0.165121113         0.736251271
     0.289048098         0.665121113         0.236251271
     0.289048098         0.665121113         0.736251271
     0.489048098         0.165121113         0.236251271
     0.489048098         0.165121113         0.736251271
     0.489048098         0.665121113         0.236251271
     0.489048098         0.665121113         0.736251271
     0.689048098         0.165121113         0.236251271
     0.689048098         0.165121113         0.736251271
     0.689048098         0.665121113         0.236251271
     0.689048098         0.665121113         0.736251271
     0.889048098         0.165121113         0.236251271
     0.889048098         0.165121113         0.736251271
     0.889048098         0.665121113         0.236251271
     0.889048098         0.665121113         0.736251271
     0.189277229         0.134446890         0.293338986
     0.189277229         0.134446890         0.793338986
     0.189277229         0.634446890         0.293338986
     0.189277229         0.634446890         0.793338986
     0.389277229         0.134446890         0.293338986
     0.389277229         0.134446890         0.793338986
     0.389277229         0.634446890         0.293338986
     0.389277229         0.634446890         0.793338986
     0.589277229         0.134446890         0.293338986
     0.589277229         0.134446890         0.793338986
     0.589277229         0.634446890         0.293338986
     0.589277229         0.634446890         0.793338986
     0.789277229         0.134446890         0.293338986
     0.789277229         0.134446890         0.793338986
     0.789277229         0.634446890         0.293338986
     0.789277229         0.634446890         0.793338986
     0.989277229         0.134446890         0.293338986
     0.989277229         0.134446890         0.793338986
     0.989277229         0.634446890         0.293338986
     0.989277229         0.634446890         0.793338986
     0.189013359         0.270322408         0.442951363
     0.189013359         0.270322408         0.942951363
     0.189013359         0.770322408         0.442951363
     0.189013359         0.770322408         0.942951363
     0.389013359         0.270322408         0.442951363
     0.389013359         0.270322408         0.942951363
     0.389013359         0.770322408         0.442951363
     0.389013359         0.770322408         0.942951363
     0.589013359         0.270322408         0.442951363
     0.589013359         0.270322408         0.942951363
     0.589013359         0.770322408         0.442951363
     0.589013359         0.770322408         0.942951363
     0.789013359         0.270322408         0.442951363
     0.789013359         0.270322408         0.942951363
     0.789013359         0.770322408         0.442951363
     0.789013359         0.770322408         0.942951363
     0.989013359         0.270322408         0.442951363
     0.989013359         0.270322408         0.942951363
     0.989013359         0.770322408         0.442951363
     0.989013359         0.770322408         0.942951363
     0.089313191         0.160633382         0.403562344
     0.089313191         0.160633382         0.903562344
     0.089313191         0.660633382         0.403562344
     0.089313191         0.660633382         0.903562344
     0.289313191         0.160633382         0.403562344
     0.289313191         0.160633382         0.903562344
     0.289313191         0.660633382         0.403562344
     0.289313191         0.660633382         0.903562344
     0.489313191         0.160633382         0.403562344
     0.489313191         0.160633382         0.903562344
     0.489313191         0.660633382         0.403562344
     0.489313191         0.660633382         0.903562344
     0.689313191         0.160633382         0.403562344
     0.689313191         0.160633382         0.903562344
     0.689313191         0.660633382         0.403562344
     0.689313191         0.660633382         0.903562344
     0.889313191         0.160633382         0.403562344
     0.889313191         0.160633382         0.903562344
     0.889313191         0.660633382         0.403562344
     0.889313191         0.660633382         0.903562344
     0.189576437         0.288284762         0.298398889
     0.189576437         0.288284762         0.798398889
     0.189576437         0.788284762         0.298398889
     0.189576437         0.788284762         0.798398889
     0.389576437         0.288284762         0.298398889
     0.389576437         0.288284762         0.798398889
     0.389576437         0.788284762         0.298398889
     0.389576437         0.788284762         0.798398889
     0.589576437         0.288284762         0.298398889
     0.589576437         0.288284762         0.798398889
     0.589576437         0.788284762         0.298398889
     0.589576437         0.788284762         0.798398889
     0.789576437         0.288284762         0.298398889
     0.789576437         0.288284762         0.798398889
     0.789576437         0.788284762         0.298398889
     0.789576437         0.788284762         0.798398889
     0.989576437         0.288284762         0.298398889
     0.989576437         0.288284762         0.798398889
     0.989576437         0.788284762         0.298398889
     0.989576437         0.788284762         0.798398889
     0.089152450         0.295566060         0.047489958
     0.089152450         0.295566060         0.547489958
     0.089152450         0.795566060         0.047489958
     0.089152450         0.795566060         0.547489958
     0.289152450         0.295566060         0.047489958
     0.289152450         0.295566060         0.547489958
     0.289152450         0.795566060         0.047489958
     0.289152450         0.795566060         0.547489958
     0.489152450         0.295566060         0.047489958
     0.489152450         0.295566060         0.547489958
     0.489152450         0.795566060         0.047489958
     0.489152450         0.795566060         0.547489958
     0.689152450         0.295566060         0.047489958
     0.689152450         0.295566060         0.547489958
     0.689152450         0.795566060         0.047489958
     0.689152450         0.795566060         0.547489958
     0.889152450         0.295566060         0.047489958
     0.889152450         0.295566060         0.547489958
     0.889152450         0.795566060         0.047489958
     0.889152450         0.795566060         0.547489958
     0.189359695         0.045939534         0.028581862
     0.189359695         0.045939534         0.528581862
     0.189359695         0.545939534         0.028581862
     0.189359695         0.545939534         0.528581862
     0.389359695         0.045939534         0.028581862
     0.389359695         0.045939534         0.528581862
     0.389359695         0.545939534         0.028581862
     0.389359695         0.545939534         0.528581862
     0.589359695         0.045939534         0.028581862
     0.589359695         0.045939534         0.528581862
     0.589359695         0.545939534         0.028581862
     0.589359695         0.545939534         0.528581862
     0.789359695         0.045939534         0.028581862
     0.789359695         0.045939534         0.528581862
     0.789359695         0.545939534         0.028581862
     0.789359695         0.545939534         0.528581862
     0.989359695         0.045939534         0.028581862
     0.989359695         0.045939534         0.528581862
     0.989359695         0.545939534         0.028581862
     0.989359695         0.545939534         0.528581862
