TITL Boron.vasp  -0.0023464958831492452  86.73627909316491  -88.12701387484695 0 0 12 (R-3m)  n - 1
REM
REM
CELL 1.54180    5.035571    5.035571    5.035571    58.282345    58.282345    58.282345    
LATT -1
SFAC B  
B  1  0.009783549940530935  0.6544437264122349  0.009783549940530828  1.0  
B  1  0.009783549940530722  0.009783549940530602  0.654443726412235  1.0  
B  1  0.654443726412235  0.009783549940530926  0.009783549940530854  1.0  
B  1  0.3455562735877656  0.990216450059469  0.990216450059469  1.0  
B  1  0.9902164500594693  0.345556273587765  0.990216450059469  1.0  
B  1  0.9902164500594696  0.9902164500594692  0.3455562735877649  1.0  
B  1  0.2207318137948767  0.6316409415605401  0.22073181379487652  1.0  
B  1  0.2207318137948766  0.22073181379487627  0.6316409415605402  1.0  
B  1  0.6316409415605403  0.22073181379487633  0.22073181379487647  1.0  
B  1  0.3683590584394602  0.7792681862051232  0.7792681862051234  1.0  
B  1  0.7792681862051236  0.3683590584394596  0.7792681862051233  1.0  
B  1  0.7792681862051237  0.7792681862051234  0.3683590584394598  1.0  
END
