TITL Boron.vasp  9.986967290185508  83.21982700362177  -88.02112982359972 0 0 12 (R-3m)  n - 1
REM
REM
CELL 1.54180    4.96911    4.96911    4.96911    58.218934    58.218934    58.218934    
LATT -1
SFAC B  
B  1  0.01038099960448863  0.6536092994711931  0.01038099960448861  1.0  
B  1  0.010380999604488721  0.010380999604488425  0.6536092994711932  1.0  
B  1  0.6536092994711932  0.01038099960448867  0.010380999604488982  1.0  
B  1  0.34639070052880655  0.9896190003955108  0.9896190003955107  1.0  
B  1  0.989619000395511  0.3463907005288065  0.989619000395511  1.0  
B  1  0.9896190003955112  0.9896190003955109  0.34639070052880644  1.0  
B  1  0.2222422594454942  0.6295632914671648  0.22224225944549403  1.0  
B  1  0.22224225944549408  0.22224225944549372  0.6295632914671649  1.0  
B  1  0.6295632914671649  0.22224225944549403  0.2222422594454943  1.0  
B  1  0.37043670853283445  0.7777577405545051  0.7777577405545051  1.0  
B  1  0.7777577405545057  0.3704367085328344  0.7777577405545057  1.0  
B  1  0.7777577405545057  0.7777577405545057  0.3704367085328349  1.0  
END
